@RELATION 1f675e4695_california

@ATTRIBUTE MedInc NUMERIC
@ATTRIBUTE HouseAge NUMERIC
@ATTRIBUTE AveRooms NUMERIC
@ATTRIBUTE AveBedrms NUMERIC
@ATTRIBUTE Population NUMERIC
@ATTRIBUTE AveOccup NUMERIC
@ATTRIBUTE Latitude NUMERIC
@ATTRIBUTE Longitude NUMERIC
@ATTRIBUTE MedHouseVal NUMERIC

@DATA
-1.0053151259972355,1.2218046849767015,-0.3997705114430575,-0.0022381164741810933,-2.0648652776836416,-1.0674339329604994,0.15714578370253451,-1.2590649114481933,2.1389929649070822
-1.3516846056163336,-0.7257438131534656,0.18676676447707832,-0.6115178029919482,0.517659020469123,-1.4066610968482223,-0.7553829323533225,-0.9232332461109043,1.6837823962317993
-0.8144028209931906,-1.4222345015068736,0.681634223668389,0.6055136511241652,-2.191978656279881,0.06440752243194205,0.014108356253124855,0.5709456946038727,2.07137001018644
0.8141517621182666,-0.5495402745955349,-0.11676591579524663,1.7388513518533313,0.9153902755601617,-0.3212427661179117,-0.6355578414044034,1.8325570434792018,3.1963944057427947
-2.0733902324081495,0.10643022769189683,-0.2549772174208553,-2.650969808393012,-0.7128457826771644,1.0915068519224618,1.5039929885826886,1.246085192497629,2.533510246976404
-2.5535495960558983,0.037696573123922904,0.6595314695891383,1.0386060692088166,0.8986691603391742,0.09315833769974234,1.7665118003276337,-0.5109891701957271,4.258795604932056
-1.9573385891339898,-0.9982122585114053,-0.002786110666901238,-0.34406395670422657,0.2731184342936442,-0.37453415075025087,-0.5330904020158331,-0.9799255747822445,2.271950033853196
0.606850593215671,2.98525900260341,0.3674816654743044,0.9218015019772522,0.17521141890851205,0.4826878872092127,-0.3135296861723979,0.4200944904518413,3.955728949968613
-0.6716233679380516,1.3800913541474515,-0.6255627015095294,0.4940301862827388,1.4765403497258958,0.2606737658239071,0.39580353343740904,-0.5503051538454201,3.943013086037922
1.3342291941726905,-0.7948936470016904,-2.072355181695998,-0.08269774501839869,-0.61836502004413,1.1361913746425423,0.1540318416835874,0.3590550934803667,2.7648659749632865
-1.8019804375800197,-1.4848979684499035,-2.553921134901955,-1.366878698415421,0.9495541354413237,-0.22476540189268354,0.9343199112392737,-1.1701130260593595,2.376213849565673
-0.28313889674376713,0.3614173172731029,-1.2931415437586478,0.45060341286253885,-0.7296024698074095,-1.869816339532164,0.5723903111756757,-1.1617838439123638,2.426210321144506
-1.03799135498923,0.07567354061338613,-0.43229517910733023,-1.1694806292030167,0.03175945658145075,-0.7209701084698963,1.2727147339712648,2.779963624223556,2.4950052734316213
-0.5574230531083212,-0.3519213178165091,-0.7699960661974573,-0.4561208274741882,-0.48720292119492714,0.18142662011397137,-1.2961166642498945,0.5950294658355647,1.9090367340950611
-1.6065771007386793,-0.17435425790283585,0.22530792204094158,-0.1314725956716678,-0.02355215087423812,0.8260471714415063,-0.3695269288333586,-0.43676423723821745,2.8452325810074517
-1.5856257067695927,-0.63093083373779,-0.9420601835742449,-0.21415031071118876,-1.1140813582330875,0.8371544863313845,-0.5479958187411378,-0.32115903870570245,2.2755898930995206
-1.5478015563090313,0.3202165779488289,1.221294945685148,-0.09511164770076601,1.5486392950240366,-0.33303761905376167,0.13395838058023532,-0.3103909913775655,3.2299293178214397
-1.4791960183577666,0.9911911129266663,0.7474449714270559,0.45015563394664765,-0.081894379572493,-0.10435844943808653,0.29787619102384516,1.7754908492400483,3.3216315490745334
0.2647753109779796,-0.39352985596972884,0.1786947168104756,0.6030946849488336,-1.1195461283831687,-0.8505352787470439,1.2292147842970504,2.4851899166788916,2.7797230654766585
-0.1512732836535117,0.28555407485765694,0.5211224283793383,0.5556044660034485,-0.05489400061628639,0.08958068125524882,0.645215585950057,-0.1973384203073261,3.3527374911738463
-1.6808704592381203,-0.6111771520193271,-0.5279940217656136,-3.2210163559857135,-0.6525282932166452,0.39559883476294233,1.3530691601664073,0.034271814200222225,1.9083923834243741
-1.0757366484416113,-2.049474485669681,1.2608495199993097,0.08797354712916895,-1.485186162699932,-0.44027463685080354,0.6166639764711183,-0.528998414203127,2.091779760166669
-0.4661886119462229,-1.125654967800585,-0.04129136178466144,0.9468075665118705,-0.7202120210067899,0.055002936033374625,-1.4745026870482356,0.42243497290143983,2.1776965062456113
-0.024286495670025846,-0.8407718898986251,0.22063080430716323,0.32475823953354177,0.23817130613962828,0.5805676870356148,-0.35208774745388094,1.209230647223938,2.871342979248621
-0.26330780687791616,0.43841269949664524,-0.8839988567464406,-0.38148941482409277,-0.16195481694132746,-1.3204934434050315,0.13249714349564554,0.3374820747263991,2.2992779202425973
-0.1962806513879368,-1.4769249275319014,-0.7393714074590363,0.9500158286696456,-1.0973683189710666,0.24300472205439969,1.1918993344135729,-1.5327005598899308,2.9855527444035936
-0.234407800316322,1.3814540786904865,-1.2922626951056186,-0.5029747705513431,1.7495839042054206,0.26348721533105957,0.6897078052451944,0.2942241290134937,3.8092771009526363
-1.1516811090343435,0.7595000375161222,-0.6167753615197077,-0.605679999935798,-0.9096897884083344,-0.03204237068048687,-1.3479957843671688,-1.1809724836643856,1.7742382856370609
-0.12243598974739747,0.28121168258406537,-0.2730067480225845,0.2811920179102754,-0.1821605838579241,1.8325612403560125,0.5850213322877983,-1.5302791359297876,3.7790077349871183
-0.9769457393818821,1.1480908663974327,0.3417539207135393,-2.5208470065727346,0.30515083587497266,0.14880876167959034,-1.2983259396689026,-0.21392646635116538,1.6791108218895088
-0.12839826591760886,-0.3712573706703938,0.981149715570353,1.7379849851235203,-2.1564453770050327,0.42896794854851705,-0.3869294465999474,0.3387581622803661,2.7567531761142194
0.472597482413043,-0.7783047254023127,0.19584525509768155,0.40825275571447184,-0.5397596803093615,-1.7025836042378404,-0.978372777615032,1.0291556373256436,1.6746490616838772
0.03344346797315094,0.6868579110122561,-2.0653027750406103,-0.2831518848798757,0.04303097332128144,-2.025039913676173,2.1216313073302033,0.15809389857678602,2.916595101021721
-0.5020542243526112,-0.0657502610729878,-0.5551995266931984,-1.448013900416244,1.5655240292343404,-2.198805956620082,1.8811570694405901,0.4400144500533324,2.664519086701368
1.3801389388685148,0.10254143981752241,-1.6872790796411685,0.8715559662881419,-1.1241218588607733,0.32717055287779023,0.8312111031997558,-1.1211340127579221,3.2299860982884683
-0.15647737612315848,1.179942130038464,0.731898069234381,0.8007019475455768,-1.372079187269614,2.059845001737402,1.25451870238119,0.5587238369444854,4.127487859574156
1.0538915522958832,0.544220352340347,0.8458028725629282,-0.4611697320346189,1.2949855848169558,0.7565646749131401,0.5140625524247758,-1.3944950688592617,3.653114236093003
0.9278401280812372,-0.25083301645504735,1.328194141849058,0.45588777208160763,-0.32267983884213575,2.165002344901084,0.5562300094006599,-0.643518230380143,3.761650431081851
0.41299891213779755,1.0768481446576803,-2.169677417725702,-0.9587784561867748,-0.8051717517428763,-1.3525086894407223,-1.1941894010922893,-1.58358838978758,1.3322210352994914
-0.8514064342603136,-0.25495579355369785,-0.12545426000290022,0.08589300629333041,0.5488838353173644,-2.219300372747535,0.3278795241593574,-0.22979963057519381,2.2400006358415494
1.9435288811221971,1.178865937036939,1.3111622966036165,0.30613455310275534,-0.5028687536709558,-0.23105953684089858,0.8640699821389469,-1.1918747041912499,3.3368402659901797
-0.1934276285812056,1.3460997945142577,-0.19330422644796988,-0.02185674744212368,-0.3028852437989931,0.7072313738042767,1.471585082569894,1.4751123643098556,3.811835311637866
0.8132051867479773,-1.9196731561976563,-0.01383774609423725,-0.493122822399772,0.02538842054241018,1.4436320034688142,-0.6897277740641738,-1.2565068942792563,2.3493707125157886
1.4273286515947694,0.676507476439975,-0.4093405752186243,-1.8802884105687847,3.377382919082646,-1.025219085737433,-1.0561115691870866,0.11494177175913174,2.3884929566427058
-1.7931064525345768,0.8107986455917099,-0.9938626748348534,-0.856498237409199,0.6549755842216898,0.0976703767483354,0.4201915428949916,-1.2644984069549656,3.014625945602291
-0.42098448082026296,0.2544208433012131,0.3376026620752022,-0.48760622407249354,1.1677820616598074,-0.4325581878196209,-0.4118769661224674,0.39445214237829684,2.7973258680981754
0.5752050161065663,0.849102110743144,-0.29396694766418224,-1.5178737466808094,0.6955377575657775,-0.3570292008066094,-0.07159925185806683,0.8903831635197862,2.424589208777106
-0.5282970466629792,1.1717179147161596,-1.1761733365547806,1.1818910929599615,-0.6701152004542329,0.4809080927488954,0.4875602970867186,-0.20252422706483003,3.6576254817036022
0.45899400167429094,0.3826535514774916,1.1249325453032408,0.4094385306422523,-0.7538621136909615,-0.2766717717191454,-1.742771973881041,0.11339439196668935,1.9925147985977958
0.026091050210833786,0.9826909839455139,1.6654744444625766,-1.8408742313316453,0.25602973431387566,-1.2795769667357015,1.0143700650181304,-0.6248185776956788,2.4720495274563015
0.8495845310466172,-1.4846047919196528,0.6082671663441893,-0.17464794568162792,0.3137231828969071,1.360168130828013,1.3459350078383152,-0.18969349345240752,3.54670195561092
0.4240610444640897,1.6155828235482317,-1.234348871879922,-0.02640575695892703,0.9648516330974576,0.2801611588196068,-0.5924642591528942,-0.8096035199216461,3.328424399014283
-0.009844808650383004,0.635967750711738,-0.8220760118279274,-0.5694497744921104,0.22749587573205374,-0.12402138738999703,-1.2192844665221938,-1.0642200068173489,2.068085436913303
0.741073780682286,0.475751991831532,0.5896392313574,1.3663894118544384,0.3097267791360022,-0.7377367046848409,-2.651828063044949,0.6865677467531761,2.2516314549356915
1.1277802506338985,-2.6307301368290634,0.38837572923016833,-0.514782674914742,-1.5189108250900678,0.24353020418634463,-0.09482423128087224,-0.06040372919690829,1.5619381945512099
0.45838670355148425,-0.3078084711388841,-0.838585798447231,0.5348173363459102,0.4086073077017676,1.2289805024890619,-0.8866809222834573,-0.6373077470287948,3.1727170066207218
0.995693754370362,-0.28815603051111766,0.18301292831148205,0.10527862390967795,0.07904780215027922,0.15060249284463378,-0.9915270411046322,-1.5030468593574806,2.413495200119179
-0.059415181272494094,-0.8449414385934964,-1.4990159604584012,-0.08743532877718108,1.0094717885959688,0.5483196275544987,-0.09184476433495513,0.9495945713644882,3.0468293068610515
0.0105457117410256,-1.2689825772544985,-0.8888596980356747,-1.0141642181269683,-1.756868699401502,0.3389758936682615,-0.15974849799158664,-0.23227350279947281,1.5543525191514356
-1.4991812019576982,0.7344767450012178,-2.077119853773874,2.1458249250764885,-1.3537546747097586,-1.5449359221534005,-0.2352739099724389,-1.9819644857387133,2.6723359879583617
1.4872461553359273,-0.6905410523162594,-0.9161919154812425,-0.06717829004935526,-0.7837656655863965,-0.7157599891107518,-0.8318222082304447,0.6820520657126199,1.7104898937821134
0.9640871682883573,0.3287624103034804,0.32135721545027307,1.613711269058647,-0.06413834659299254,0.45353430151397983,0.42192075423528475,-0.24415663529064868,3.745436039727643
-2.0392321777601006,1.3686315575323487,-0.9649234605801045,1.0584244868495878,0.6453759495851475,-1.7587394864231143,0.6860514599984393,-1.183258512665775,3.3536603173536927
-0.45730165508679,-0.6256772874962124,-1.3192471945987674,-0.8000385643976464,1.0964692338108837,-0.0635245746153551,-0.20298063739565708,1.2374381346841392,2.5408708636109494
-0.6484692000191374,-0.3006743604436826,0.46330151023423083,-0.2758957214401739,-1.7681569117532319,-1.2244022070472718,-0.33304762097552243,0.5665409870816561,1.4529985730412078
-0.20367375017696587,0.46877425607502377,-0.9983854391882915,0.7660802783846903,-0.6022120603617805,1.2269332238843076,0.30179189981946597,-0.10015407647995278,3.44323562264409
3.1176811292080475,1.555198534147342,-1.1145323150080617,1.1067104242873174,-0.5913947298380474,-2.2746210312061996,-1.7392051521728,-0.20412976887271617,1.9111365237942792
1.475356216949552,0.2320499373576363,-1.4480843414973241,-0.718444221252436,-0.4710383056183228,-0.21344715171184725,-1.4074637743765552,0.3109075655980046,1.737001548497192
-0.33078922432755736,-0.5014021468856367,0.9753124584779789,0.9784221120280351,-1.466785190615677,0.5221425459339358,0.5156280884439565,-1.1036698285303692,3.0345658158120274
0.3520553965142968,-1.0700847663261526,-1.5255251709247388,-0.045586016355497805,1.8466369960476658,0.24333944932269183,-0.6919080698812444,-0.24123605785632987,2.793195516331749
0.6988156702804763,0.18583762890275304,0.9198715159544302,-0.5942108723816666,0.11345604005655238,-0.6161434580489434,1.0189232400898984,-1.0401987109554731,2.9316278125099697
-1.3028447635247453,-1.6233825299412434,1.8884369396142566,0.697586970339199,0.2050753392346299,-0.8360916702196265,-0.16424198503203188,0.3080099022173409,2.5026726209591117
-0.09917586377938291,0.7083564472993533,0.24380071377119883,-1.2803043986708944,-1.0212328171307132,0.8724573282801447,-0.5640786307367284,0.650201177958661,2.222296262056222
0.7699687313352226,-0.22580674907604184,1.4364295195588668,-1.05470445496592,0.9049620414941998,-0.06723030719613125,-0.7039163254155445,-0.08259257535129046,2.40909192673558
-1.889649292096153,1.8904406851557827,0.04930833152022263,-0.6082265074447593,-0.7316317389085281,0.3631156277445234,0.7688396759688968,0.3111099911431952,3.203059309695504
-0.33346069318177196,-1.0590371220120975,1.1037200137225964,-0.06338985203481078,-0.9972282874387761,0.48279012406031796,-0.38448912104151794,1.0835831031099956,2.2727405325326524
-0.2860042218801108,0.7479102561175338,-1.0727430257398065,2.0740826697499735,-1.9792998103757877,-0.9193845915864234,0.23924686411114954,-2.5302875227463297,2.917244753318886
-0.04347694981386243,0.3405892164004968,0.39069592092814415,1.0473177066214483,0.5514762752395233,1.1695899924277735,-1.326472128311083,-0.22939074406802776,3.391305106185637
0.114845090277753,0.38420922164946225,0.10776005545254295,0.2921488421187989,1.734041954422619,0.2802359460024943,-0.24989373581204613,0.2921688282073261,3.566204265392935
-0.7699732310586418,-0.20358036010236177,-0.5816809139486437,-0.6492775450660071,-0.3791277409874871,-1.2239402667622565,-1.0147567306928669,0.03408346825922607,1.478179679454744
-0.7423280128765718,1.9262858548553932,0.08127716759106869,-0.43507724157631605,0.06078537250130285,-0.31167588576523414,1.1788434440256437,-1.3290076372234483,3.3617802509666888
-0.6342858476894031,-0.9478927172689863,-0.8343230454915821,-1.542801515209646,1.897767016745977,-0.6327550298850391,0.7640297815728595,0.5964411375817527,2.520279156070045
-1.8861287039510262,1.2434691283459636,-0.779375325260117,-0.3089600145979074,0.34292637732134257,-2.1045827987653323,-0.6518885825313808,0.13807840841754684,2.0527336280232342
-0.20932367715186612,-0.8848027140269009,-0.172946059923423,-1.3719011429313563,-0.4432822511915103,-1.6135613978767411,1.7117084801423434,1.4711703274936085,2.0428378958265347
0.06167984984797165,1.1647393544571714,-0.7345915767980492,0.20056919723094285,-1.6151318159055095,1.1486373494287152,-0.810252437014381,-1.015821818978397,2.62372344275252
1.693547133413672,-0.993593003931448,-1.1204179189363892,0.032143146964560894,2.5299277492519523,-1.7257711248125733,-0.754866196571921,0.02233923931860801,2.3725292467030545
-1.1646633485123947,1.1422073928855578,1.1572445477310251,-0.7346710936768595,-0.3433351758524492,0.9559358223307622,-0.17149560038823927,1.1835491025816047,3.0336815031038165
0.7835896647986067,0.696167997159289,-0.5176925728692147,2.169936588080543,-0.48083378951197936,-1.423682636883923,-0.08809124402907328,-1.8518427315746586,3.1022241565385924
0.5571376184034819,-1.4811457246217157,-0.0023689161328080566,1.992036635959309,-1.9645360381029247,1.8338965460243755,-0.5436068960930526,-0.8679224627511536,3.0109673855244963
0.2951409793374166,-0.04091753519506904,-0.14648067072816137,-1.0578366186102344,-0.627092824772296,0.2607668174830632,1.0064110400265547,-0.578212098219754,2.6060699003732
0.15551160376356082,-0.5775342640192128,0.697238046390313,-1.1565552170673363,-0.13111133868048266,1.2812386535229803,-0.347524942518858,1.21644738727708,2.4439861522492587
-1.2756826599957316,-0.38445687897709163,-0.411024936503173,-0.3787598366030933,-0.7114621940837048,2.0826603221097977,1.0216229840730389,0.4308624190150374,3.384851213457443
0.12918747333171046,-1.097143649628814,2.291911266818686,-1.162065820256283,-0.5522612521126086,1.5821167513035672,1.8674620041613508,-0.3994654904728529,3.33949384365855
0.7348777860498175,-0.5830774385689385,-0.1671217137864115,-0.24869112618354708,0.8604734883597454,1.6073455760199926,0.28257995048829965,0.49097495163825133,3.485161906532029
1.8967929826539474,0.787084603742452,1.158595579007404,0.9633761292443218,-0.9746816702273214,0.4127809269364983,-0.8206823183517105,0.82206015999449,2.918905643128042
-1.671761273328167,0.1664931271151245,1.542736367279776,-0.40415715947930275,0.3726481864800551,0.0017948728781070852,0.24347507713677022,0.1177074184609581,2.8740846195086656
1.2189707897936632,0.14035986984804696,-1.9670697035871523,-0.1858457521927473,1.2005316584738726,0.3099989831655551,-1.1171864617070024,-0.05658848889989584,2.7074310333109857
-0.9780230235225682,-0.7687664100385205,-0.45903167317890037,0.21871826614148773,-2.5089571784950757,-0.16681474069839325,0.5817233649705059,-0.011997344627723866,2.0739459208900675
-1.6413801156020968,-0.6597486412539658,0.9838523436061467,-0.4765514232192414,-0.06327395989691587,-1.3045894438004726,0.1258865305766578,-0.8935950137191204,2.0227560545889305
1.0269862633197322,-0.9645377949101913,0.5059655534558652,2.1650560678066024,-0.2798103423770061,1.190548594343596,-0.7282722024066131,0.2125740306322149,3.36940624329333
1.4313667818311835,0.6124687940136023,-1.0166831285764972,-0.039307287627631186,0.756788679986982,-0.1344967844017327,-0.2440804736742013,0.33385996656853467,3.0728310061060276
-1.4924622700059929,0.3319184477078873,2.935406206388468,-1.7106033544365142,0.8117055716132655,-0.3930902007014615,-1.027923765010739,-1.5679882655602675,2.000268323961846
0.4762403533876659,-0.5650604735511925,1.871074482308114,2.441221722471914,-0.6362237126519298,0.43712677973105185,-0.8508840890388987,0.09205513731199198,3.2491065429138266
0.5137859509122088,0.5607845263682344,1.083051243175277,-1.377669367957091,0.3577873603482833,-0.9378250399151228,1.053802052034903,0.5150352672086598,2.6237519534105984
-0.39115637225284255,1.050319552276355,-0.6110011240896291,-0.0016217169633801235,-0.19308207400661265,-0.1771681151147619,0.7963400197488324,0.24889396913325643,3.094904782741267
1.455600479257298,-0.19609321067693788,0.4096853437465497,1.4930031044432035,-0.23389780045359396,-0.16013013959793715,-0.5969935884209324,0.618360566259665,3.0156306847753553
0.31149085879778987,0.14934191105988046,-1.4110568310660818,0.23962751823899794,0.10285857793233408,0.7330542814659985,0.803154742614022,-1.8927621775900518,3.478478701589725
-0.0487656518431153,0.12682468513496187,-0.36634167713775767,0.02235055496636566,-1.0043378262939064,-0.9866590277241104,0.17676210325026384,0.6268770635290218,2.2377588970565507
0.8848425828011585,-0.23927314715185138,1.4781212260994843,-0.7513454696033703,0.20713943677856853,1.5200917409911012,-1.4823967869957688,0.13111932467514684,2.5209918277326944
-0.08087849786546131,-1.3367254388759306,-0.4118233689636573,-0.4545477187434442,0.17528677893392386,-0.218653277435036,0.13192796677195706,-0.09139955750911445,2.4273211563204007
-0.6028206557839616,-1.0211624575603002,0.47347189903522846,0.8467707752164937,0.9515497705740428,-2.1272274203514954,-0.26764109089879357,-0.099094300241269,2.388431314781334
-1.655224712189433,-0.23875260206343432,1.2855822343616794,0.14159578673988282,-1.3200771877373016,0.4752586047173115,-0.05706129143115594,1.1706616293176602,2.5548982281457464
0.31852100479887446,0.4486357645145273,0.961987189071841,0.7499002394237105,1.4621959387176369,0.27926783821652595,-0.23701197001262772,-0.950910729687232,3.6761814130051627
-1.3477092303094034,-0.5945036959490072,0.4781405755558084,0.15252588289761657,-0.6583827179404454,-1.5515374209681267,-0.5772287257105709,2.2143299425565965,1.7683735252325083
0.9678260240252041,0.23286808742689824,-0.6080061429373236,-1.340072071123935,-1.2445425000847228,0.43221669075925395,-1.014479726707414,-0.6813802350695739,1.602468796041087
0.01259240078179486,1.5327389130025777,-0.1087601484568576,0.6901439917111125,0.5193465142411723,-0.40122047188583626,0.40171172209894146,0.22409248181041677,3.624368314255775
-1.5763921569842494,-0.45888426286894,1.0786808334312956,-0.17262729994081963,1.6839276914578687,0.8836599374866724,-0.03850846950070721,0.6523228784134196,3.482952980593323
-0.3882430535215389,1.6562082520572956,-0.2430611988808665,1.0703651602299298,-0.7352010347632466,1.2718924219386565,0.0022879361435040493,-0.1108125602790875,3.826243347036289
1.0235306441853447,-0.37630072492499606,0.018819049740598424,1.6957228778108653,1.088769654216672,1.8972886947731116,-1.1716543473175618,0.1566937282465246,3.9147376743374007
0.15805348992013185,0.4559041951707027,-0.45909031021899177,-1.1543626682329844,-0.6065033882157397,-1.7518288067517191,-0.6946003691631446,-0.3899237065594453,1.345320616239345
-0.8522246429973241,0.12347980916459421,-0.12428577716243629,0.7466113646021572,0.9079623136270489,0.3255778167870701,-0.21138422981796898,2.2758254276476375,3.407996745092935
-0.6038589312369547,-0.7451677703173505,-0.10496770756362395,-0.02549412858519966,-0.39989999010931654,-0.21715880713685662,0.6127907415832897,0.058370290817895645,2.7116577693874375
-1.330226255641338,-1.3528658889640388,0.1487806348073052,0.08739142892012171,-0.9702713259082388,-0.01605403924858619,-0.17125630482493448,2.583573660166567,2.1257876572730687
-0.04865235157045115,-1.3260476860820383,-0.413465161123276,-0.9637589262106109,-0.35976864578908574,-0.9571509148950429,0.26028050658288615,0.34378788154988543,1.7528510238516752
-1.616310608436588,1.8381836767951225,-0.22346598237185214,-0.01941960588773261,0.36728731340134063,-0.30317978283427544,-0.3493167961181975,0.7999419019420501,3.0186143116809205
-1.222895019555564,-0.6382827265284942,-0.8153756283161211,2.1247714030169615,-0.8319549174944512,1.3313390619884031,-1.066234931899225,1.9203675021442612,3.154024913911063
0.14197991387400533,1.1711019716695594,-1.2565653359454354,-0.31815850161792886,1.3106059128134633,0.6007330151455916,1.2892030514068733,-0.906215332047211,4.0276030515522345
-0.6375875420759639,-0.5509818035382495,0.1680153405325285,0.5008315910042116,-0.05310680169691065,-0.87847380134206,0.9452115346114836,0.7424589135926203,2.9579928205716612
-0.0376871207422379,-0.34590728066682785,-0.8373807896824669,0.9252818927168314,1.5741467860324088,0.1686513676101955,0.8957962182359285,0.6763570476749083,4.0117197544876575
-0.7663225247814263,-0.9221889054316275,-0.9546181019500601,-0.5061890610853361,-1.001314654197967,-0.17951457487248015,0.5182189504454116,0.8942327745009349,2.1643342493834012
1.06014381867127,1.0815140862997412,0.03754184148682145,-0.07022036151761657,-1.571152351117883,-2.5222779174879504,1.0918053390746456,-0.15196738231603887,2.0476789261067356
-0.07823065905851781,0.5044832563830169,-1.5630343065712535,1.4350873992222355,-0.6108576398050658,-0.34730228895784293,-1.1794596645077804,1.4532754760425446,2.600704104140594
1.3643262441708666,-0.030786502413415195,-0.5619301138579263,1.1892264612557852,-2.1529135157575157,0.6672451474292419,-1.4289046065117268,-0.028217878937229775,2.142719414673773
-0.8661748482145009,-1.881849045497639,-0.5487249077409615,0.15985639199740037,-0.12853751143893075,-1.0276751409259581,0.09284490114111471,1.2657078408647007,2.0983467797157838
-1.3700266273644293,1.1818900425588936,-0.06644897530945597,1.2272738220812627,0.9972655676588726,-1.210160502980885,-0.35807944617931886,0.4385792909210054,3.3333550840067705
1.3655264625262657,-0.3451040968191901,0.044062567406599355,1.388664520102482,-1.3077765651476607,0.14237791251046628,-1.8357687561770901,0.3813528345802849,2.2576168463411497
-0.09287450139305273,-0.4138949422748569,0.46079724361596747,0.7979752545819053,0.7663884765723994,-0.5551092279283498,-1.5223343182817441,0.012169682282905197,2.4493649048093133
-0.3732682459413141,-1.1200474224698722,0.6709112482768751,-0.3918767653868664,-1.6885051880685,-1.017764309076953,0.6037905202778941,-1.027403551526011,1.8452632882795115
0.39876376442481426,1.0736219439075716,-0.6308455507908564,0.7690316554422755,0.9458881565546393,-0.52738906163962,-0.29786680495686124,-0.005106632027225022,3.3618889986244924
-0.7664664310197877,-1.0958708107987174,2.768373605625943,-1.9255673603328771,-0.8358702556183059,1.4937097590055342,-0.25155190018413637,0.6110709051105707,2.137942599543787
0.8271832490360238,-0.7537361643574896,-0.8895144296255233,-0.0771017094141042,-0.2453881160028705,0.3411519748166439,-0.8158102849654383,0.27669079933001905,2.398813198591153
1.2235688824186275,0.996858773465808,0.2806364044901364,0.3721054726068629,1.4641772387524374,0.3891591956679287,1.7586204841951334,-0.053120653017545344,4.4912755029014395
0.487872284871074,-1.3631740045928105,0.18970616761039566,0.42588720619303577,2.0243096232868525,0.01914777741575206,-0.6619821777966091,-0.6414869090443096,3.0134698072342814
1.7025146581296056,0.32159321133923857,1.7549330716472415,0.22526411724754952,-1.514470309180767,0.6927227551168594,0.01840163078343813,-1.2693304965466992,2.7580037422057213
0.06934433703625043,-0.6500239344068982,-0.08343796979036086,-0.9218598131253132,-1.496529255090079,-1.0039573720814985,-1.44964521969853,0.20726732939894396,0.8272653947814521
0.5274808330277304,0.7095994793835665,0.9280156591516868,-2.354482922696602,-0.4012092065446777,0.018252460856112946,0.20849197057558072,1.2304600477599754,2.095082226326995
-0.5662977296027719,-0.9093874547947389,1.4027943109360992,0.5868570938002703,0.7910319470430469,2.1904556258099785,-1.4018510627922809,-0.9905363251306883,3.2693477642167013
-0.6656934648935469,-0.9240628073410654,-1.2535060123717616,0.3857499681816948,-0.7199895332219391,0.7026599984993058,-0.21495483807895113,0.2408767572004076,2.5725999827386015
1.889278795503996,0.7230379395798638,0.08551332963959903,-0.9289264824607304,-0.9878659101397719,-0.5041286736516637,-1.7157083186381294,-0.07285768884105508,1.3718166544501895
-0.08670113614820872,-0.3879649689074522,-0.1761335035509783,1.6713475754374763,-0.8937460190837143,-0.9013756798971745,-2.899513879868482,0.505735432472799,1.645560138492514
-2.854626662904391,-1.0902084067994298,-0.9855396007209299,0.11053531747394013,0.24365722370271442,-0.626315276183007,-0.9697437196346744,0.49406391897551966,1.957651623743665
-0.3998267342865265,-0.010352289907736689,-0.17387382031458634,-0.7051105201659605,0.21282439866996872,-1.349605255711928,1.3385921382956067,0.01999548620641927,2.593960876323885
-2.211135309007885,-0.35151348404130867,0.0184183791895517,0.32692737376416264,-1.8707919210258557,-0.21910052880886424,1.6764373122752827,0.8294055811834892,2.9422301219952525
-1.4069774621039888,-2.0276772716708487,-0.8860402469783771,0.7031401972360493,0.6932176016587042,2.498430483721495,-0.33257937984987496,-0.22800572680971787,3.564295204055119
1.3035079319347591,-0.01109200394860206,-0.8130143722601298,0.2257615231117544,0.32208231076698546,0.017613251933657315,0.8232799156777053,-0.97536602727825,3.235250085934292
-0.6717207892580773,1.0022361667029254,1.5602555295309308,-1.3154413070498456,0.32099756368602317,1.3094441014026479,-1.9516029128828867,-0.2768893557688036,2.4424979690692092
1.188393273448084,-0.7309300399419191,-0.033126972873797095,-0.5176112990361714,-1.3793192280145272,0.2237879516388985,1.7945578635177877,-0.016422896072752075,2.779154578498817
0.7542913298135743,0.513085420097293,0.7250957868479971,-0.6414815952229522,0.9531250453760867,0.43192254467394064,0.5161782871149584,0.8004095252276823,3.296368742648546
-1.1301787294846835,-0.5292010098115129,-0.8692869869886438,0.13735247940703602,0.5181017020299757,2.9181735550600925,-0.010867137034972144,-0.18414581568320207,3.8041540122377375
0.19624094066672046,1.193112945851028,1.0215153927818639,-0.45965677227299695,-0.18826133508630655,-1.079842447781487,0.9189148546583293,-0.6135876053627944,2.9240922591517977
0.8011817639881827,-1.8132934720171585,-0.019318304271835673,1.167217733304373,-0.15464970656083346,1.5884471762401118,0.10163005353342468,-0.6849871791437476,3.2741913435023777
-0.3084827884558197,0.9184544439424138,-1.2457173764463845,-0.7095798547491726,0.975816719344709,-1.2585049106753345,0.054934110999848726,-0.21701705042437042,2.619460068879489
1.543243528272189,0.5820977034686158,-0.22648409884983192,-0.372206776071053,1.221033695525353,1.088748619704186,-0.9594392367234797,1.884586305934609,3.12797926929017
1.1785126897984228,-0.4817659710934752,0.32445860435251705,-2.391956204313024,1.8566474365619547,0.8447743757816999,-1.803862792562365,-0.005560293648070566,1.8791691182624572
-2.61813319869228,0.5096892312246561,-0.8143981874463238,1.3528005348967251,-0.5505870670007066,-0.4665740712027766,1.5008430302803784,-0.6286702470308604,3.679729093071703
0.7589692204932674,3.852731490654721,0.570890510693167,0.9540017634932023,0.5150476863060479,0.651391251305798,1.135565640180599,-0.3152692446403456,4.884129200583343
0.13885603243088018,0.3772632593422264,-0.18722732150688023,1.4538402371218848,1.9740786877450238,-0.47996464271220896,1.0326575166220122,-0.7215690823400293,4.273664517119051
-0.3785797432131542,-0.10358685340578061,-0.2138751675546389,0.41875996012749656,-0.18820243877282114,0.22058353773736078,0.9703162017882814,-1.2709517210922827,3.3226423680583634
-1.308820399119112,-2.0038623644067535,0.6354180302092264,0.05993263026632825,-0.26451484131061076,0.2773769379581917,-1.2392583948534726,1.360658595838651,1.9279934689700002
-2.5065715705367166,0.5911361179239325,-0.10697146985848006,-1.7472216669652556,-0.13808233466148176,0.094621044669358,1.9422455947562995,-1.625544033562061,3.0567196355768624
-0.7773714848459066,0.24312345851289308,-0.29424250563645765,-0.20035257779416388,-0.06263957732723487,0.23184209213484805,1.356583385827982,1.146030144142065,3.2894881062170698
-1.405189846803575,0.3687331473175197,0.39379729821625153,-0.2788833941507565,0.48206672733538614,0.8451579711843216,-1.92767257934561,-0.04889718347410554,2.485583683650581
-0.19819567637971988,-0.4829098394605177,-0.0827150238964932,0.9513062442994834,-1.443604262169765,0.5268979236657937,0.24309172766069878,-0.1908722195531798,2.939670732578362
0.5430322792896524,-0.8055266825105205,-0.2151138001704899,0.9943515198154235,0.5327832093226242,0.9022713999434526,1.542276627661302,-0.4998724304108518,4.137790515936603
0.6628410930216325,-2.1357998487348056,0.7597872369530771,1.3722713166079914,1.5199520059142992,0.14204447883054525,-0.8395275580176573,-0.6729053320094016,3.0349829657747587
-1.7982147394091075,-0.5653929702854015,0.2431346551384891,0.612332214002512,-0.9214510234289213,-0.9785883899886544,-0.47020333878531134,-1.381591718463581,2.193842817136578
0.4625912928539512,0.0341524174880246,-1.0872459388628026,0.6793732829565033,-0.6757080791616118,-1.148794035158656,-1.0858251288851855,0.6663125009092119,2.0559576772562784
-0.8022772692216189,0.26105527217988933,0.00511345664246089,-1.4153707420504142,0.29612027706457605,-0.42064532276535904,-0.23458713337514692,-0.3427145165267695,2.2050012409498114
0.41379909745149823,0.27899416222380197,-0.8353470532597573,-1.1875984190295128,-0.6734906242438685,0.3098207102270275,2.1451491277733883,0.6337768809320985,3.0982811342441403
-0.6533292325737119,-0.11473644146689901,0.5049872789804571,-1.2002964070557762,-0.7925207384327007,-0.3345012358409484,0.8657551941701215,-0.4749453111609562,2.2949800511321516
-0.568876975197369,1.0185374276503947,-1.28950006972398,0.32864402580480856,-0.7982060763581541,-0.5738199139101188,-0.301579807791105,0.7831556560131748,2.54031204076772
-0.25628082425157245,-0.28509425704201397,0.1386451837100845,-0.8682609615983323,1.6043391083085963,0.09781329309330739,-1.0861262991814098,1.1039335467019071,2.4977344584975074
0.07896404566808451,0.6989196850807888,-0.40980124379353305,-1.4704895512312506,-1.1997252650902135,-1.262769775698564,0.7833587105240313,-0.7758748231664838,1.89159395649472
0.509683077242329,1.783922595201769,1.6814924574180155,0.147298000389084,-1.0448363139030712,-0.6804940477640476,-0.8838688951407293,0.6149446390313781,2.361439914991725
1.2543383607573395,-1.234511998422396,-1.0319662838471795,1.2880757248523775,2.2770864980533045,0.014508999262654136,-0.4402592043864004,-1.2361357960304624,3.4091596228931094
-0.11961962436877134,-1.6744694604532453,-0.1090234199634638,0.16058943317175978,-0.5968947847319713,1.3621324036850793,0.03437530902646009,-0.23644883673585937,2.768048473902007
-1.6047050097978122,1.193611755172588,-0.34230484344914897,0.20748879785218177,-0.06744655855518213,0.4456779070819239,0.902091311588268,0.42350787402203743,3.590687951307766
-0.387099702474401,0.7789365035121141,0.4577728661518858,-0.005596018829046555,0.4395012306202264,0.6687416555925126,1.6744924333475373,-1.0917008761393143,3.986250673342703
-0.8342818100346248,0.9134737320174066,0.5376299029498797,-0.27999330187447974,-0.41222074502447015,-1.2790307362197864,0.4281862478105761,0.5152943216244674,2.48428897576823
1.5142807357204837,0.36660624701380495,-0.7957176635206115,1.027151035893151,-0.723168438829393,0.8083595496657083,1.7464906315946216,-0.11965890247315014,3.9939390333994873
-1.4635149481321186,0.5132674331133561,0.09707754934804039,-0.7020530938773524,-0.5297602037670388,-0.3276621465977682,0.9686449905328892,-0.39210815313215763,2.680390502321085
-0.5912780093697056,0.820553502887897,0.18430906407810346,-1.9046746934654637,-1.1031843812330935,1.4444121950550874,-0.42002772729416255,-1.2276799644560572,2.224034515537903
0.23160747416809183,0.2984518139814398,-0.7825985974185891,2.084712921231016,0.15140304795173262,-1.0079116954282061,0.7070323596107849,-0.3397590076475238,3.627851747222989
-1.1738733263060288,-0.12058718847346953,-1.3401248956547858,-1.487861703490623,1.3304323443788164,-1.1251861017311617,-0.485678744575047,0.3888189102637133,1.99986619559892
-1.0981863837781498,-0.08621709800745275,-0.1296730520286007,-0.28478940951539505,1.0781253957947718,-0.9972649579684154,-1.5365306903820384,-0.4638544295059457,2.0985151158481354
-0.9425580057918763,0.7105491022977853,0.42934082280173436,-0.5561187467607805,1.3934545275244314,-0.13006029355362003,0.3796396483859655,1.669069525826331,3.2288239403852965
1.5328733556363119,1.2184802148716865,2.202013924659616,0.10957158007785811,0.954085102156628,-0.41643843324802554,-0.3560920486190552,0.0019768447558107757,3.1669661468680133
-0.6078219870944325,1.3175975356079597,-1.0065425652796411,1.3171150673398653,0.1684609762696143,-0.11806852699107874,1.1398785611290454,-2.1218548990085946,4.091035494746357
1.2958717818630143,0.7579218499236196,0.6855077387902041,-0.1755639454992155,-0.7309562757154733,0.6686548047579066,1.8486088332964115,0.09806753953894455,3.6090940763210124
-1.9049444540106388,0.3980482165092625,0.39457998548421935,0.4504957237780347,0.8567374214704584,-0.26175829022109454,-0.4257556046515905,0.5559414516458422,3.0885513871014387
-1.0158788269899783,-0.24066517453021302,0.007880184694728152,-0.1643352058853912,0.25719897035592737,0.21209335307417523,-0.3256110521485036,-0.9933586995819507,2.7926584884174526
0.7519330326867741,2.463242112485286,-0.19236096478112252,-0.03471176970524331,0.06023020994102644,-1.168678037619532,0.30154734233361247,1.1428228145150205,3.09164782542784
-1.6273117279473155,-0.4551989048161591,-1.3472539175813492,0.5510170602262995,-1.349925637861273,-0.7334820666782794,-0.8987998102438376,-0.30082595603229867,1.7835200851260054
-0.18733030982130086,0.6067621502064073,1.4106923204208948,-0.5744867054162757,0.2252697220150467,0.8717025855988134,-0.30971081180657256,0.5095135639296859,3.0518122878731546
-0.10609063534142033,0.6078403387350085,1.1013301648895504,2.3246989143234176,-1.2395880125250283,-0.5289467627246989,0.7163400805404107,0.9573048225935312,3.5574180099646378
0.18568858041873892,-1.5118834195632136,1.159381043300522,-0.7790927393767005,2.0931979322099448,0.20323595458603103,0.973101561015072,-0.45763324933761523,3.320187222961831
0.21187917882888407,0.20199901075732124,-0.4949645508907007,-1.7447603876053015,-0.2336069609828654,-1.0553241585924595,-1.015995431168029,-0.32390885321592183,1.2926131560891132
1.355572935710348,0.5199021395287525,1.8688178405438531,0.27658150559104877,-1.3734028889697492,0.008556080824349832,0.4197056083572659,-1.5708814571259122,2.781499685531589
0.7099327481472374,-0.4457574597968489,-0.8819607642671741,0.4800636179041039,1.0103793132832635,1.3831945153293432,-1.4427147860027125,1.2663302679562887,2.996771569337291
-0.21398884422550896,-0.7677975651041284,-0.03468488738678118,1.5505004928140769,-1.0041407667520679,-0.998354040738791,0.23421473253652075,0.9843223984765838,2.6021177908186495
1.0274793433526916,-1.9062366200893806,-0.08837328752639602,0.8049333907323256,-0.6335895154938127,2.190417001188423,2.2106897260157643,0.8823970897899802,4.152174843069423
0.025385277972271716,0.8336032048373484,-0.6011265526688468,-1.6667634067891977,0.4928839718518698,-1.4947561464496442,1.1659165202552229,0.13659739558875236,2.394422852778401
0.25473113738020947,-0.10198665459367798,1.4469441463869799,-1.572989257072861,-0.7554988831339492,-1.0525471918701104,-0.6608342358101458,0.9942988266876233,1.2698356595737894
1.6875480552367936,-1.1207676506962496,-0.057397463786793744,0.16064994035311653,-0.0120435529599315,0.6622629821596197,-0.05080078861953355,-1.0391111683677392,2.7294847328193548
-0.6536791406374189,0.6197387847028687,-1.911316891662504,-0.4684961133603157,0.587855888137735,-0.758765257935375,0.09297924652940966,1.3508523306990055,2.609690714024757
-0.4976725234290394,-0.34182182024613555,-1.0069273609451441,-0.5641961798604865,-0.9511843703879561,-1.4940377932897506,0.04782531978468294,1.2551457883749038,1.7330197269607757
-0.33577861774042206,-0.22652747238283805,-0.43042769880071585,-1.4723540615107777,0.5558260275751273,0.7339504783642384,2.0084730109816995,-0.574601858183391,3.329218150397506
0.9005330773315916,-0.10726476581094174,1.220282896417717,-0.7625192391465982,-0.01987363536831157,1.0363028920724797,-1.0766791274710135,-0.5955349351838592,2.3689738354991183
0.16336035491580048,-0.38762983266324635,-1.934964117240471,-2.367477653373278,0.6332253101150935,0.3537706308913895,-0.1493614956496412,-0.9793002302826354,1.910232746360114
0.5629692366905709,-0.1903386780836082,-0.8756182533847572,0.9261775475316414,-1.0372461543264564,1.9094166404701305,-1.382799730964336,-1.3985675738191412,2.8043629859227726
0.3011073391917421,-0.9266983088473107,-0.03143917037477642,0.5731278132412001,-0.41299782214343406,-1.7858664919341112,-0.8484286341908146,-0.3596296724524624,1.7623218450009754
-0.6160712153363237,1.1464871587330383,-1.1123274696705807,1.2746838496794863,1.515413815348209,-1.135635904757829,-1.167757415899921,0.5092953236420079,3.068935379353961
0.6079475670057539,-0.8228559015184324,-1.039220163990766,0.396366956467351,0.662536033398613,0.1697477679706617,0.8179815444538614,-0.8464978028689073,3.3528499103615643
-0.4074601072916016,0.7289411945704503,-0.6923507742337942,-0.5741006752835983,0.4795075480016086,0.5364138998913434,-0.659039274888645,1.0338810549242086,2.815077322901687
0.47993974114827864,-0.16176728116566902,0.33086702840635124,0.609238830889753,0.031063426398931438,-0.33186486182197916,0.7497666284891851,0.32478159411011454,3.3066366093288377
-0.4316203127180484,-0.9224101844985025,1.6153756894694418,1.2171585208254965,-0.3917581490438219,1.5213160519224513,-0.3223204692113399,0.9983108981479604,3.399594450910536
-0.8758148246462933,-0.2899813544366399,-0.8385006163839522,-0.2145376645179636,0.3343270545535034,-3.601085104459518,-0.7424867777695996,-0.70128957079155,1.0998555638404592
0.3773004930448522,0.3336621052869483,1.0375399442578992,-0.26987493529337125,0.47897982574639186,-0.9787637157823074,-0.510016398854747,-0.4442932600761116,2.3879591231671755
2.2096055760423776,1.399417926653883,-0.2365373833685352,0.18807335699177305,-0.7956551338258075,-0.851180482447485,-1.3115491378986817,0.665334534508875,2.131535811302376
0.5779785236395572,1.2725701629285695,0.1263141994832002,-0.9928660010855455,0.5101574689151834,-1.4452052644122255,-0.46913085421040895,0.6662696720435232,2.1719301558142012
-0.5622875292409727,0.5425600435859647,-0.46341769281246226,0.24196227156603412,-0.4694743859349521,-1.913280244657798,-0.46572975357025687,-1.7249178325130328,2.0298913376458727
-0.2655926332624114,0.3240364427065333,0.8241028968557058,1.2019316695395432,0.872153105684055,0.00878844263207182,-0.16414941272177394,0.05786404742675647,3.6357540722494863
-0.2671374859417547,1.1381503309676184,-0.5289163791046552,-1.4587583925306935,-0.6973642279161708,0.23513529936618852,0.7775960617922721,-1.98468794144591,2.653969047472111
0.35845361820962024,0.7505791675217656,-0.41619440488525394,-0.4500128579958137,-1.5171736966716791,1.2571492168625729,-1.1300693390403578,-0.5353350870162231,2.242929400843179
0.1616985267047529,0.023195978557374822,1.3510157524870003,-1.3307051313309262,0.8422973270139027,-2.1779677321946878,-1.5125289652988756,-0.6994145401232875,1.3059901089231292
-1.244654703311417,-0.9221653241776254,0.8696059201056602,0.41343490322370086,0.7569886166453519,1.876795812558066,1.355637858804951,-0.773789199103573,4.10629508067594
1.292745289518207,0.1579743122514517,-1.2719190011127228,1.0626572907875265,0.827115428565768,-0.3756336657655356,0.2113965674706589,1.3511140899867151,3.4696708137137056
1.4415686206579004,-0.38455554422982535,1.0062928092144405,0.8356921120651418,-0.8604133652839524,-1.129706854657618,-0.5768918695231487,0.5298041779152828,2.0989006079645667
-0.15129922023252232,-1.433151814524712,-0.524662407066803,1.2960630617813962,-0.14994071907910936,-1.1071568168024517,0.4936548476431509,-0.36550593698526584,2.6384250971454635
-1.5271678565896476,0.605606232631313,0.508608373233442,-1.4840566649243352,1.5091310134045506,-0.2084682105404079,-0.4303093199546424,1.2066081548639151,2.5522594089691166
0.15140739607201872,-1.9227717720623363,0.5770721838351396,0.1551553428653563,1.639256516741752,-0.39828303354254857,-0.17802329006383844,0.11758862988720224,2.6967756338225715
1.9025582052295598,-1.0175847772133757,0.8601826383951566,-1.1554517938176596,-0.4588768450249969,0.725081044447508,0.8102600443753338,1.5268126635772652,2.544875650657396
-0.4693464664267112,0.6636463470328414,1.0595655726233972,1.0380125273159622,-0.7596730177525534,0.7642132033388553,-0.5552804969053294,1.7279638353817652,3.1653502300401897
0.6024734362823633,1.1665283362210033,0.8913439016052467,-0.2904414820111494,0.6938234538591022,0.4441451710872574,-0.20435572664564833,0.8157544866520694,3.234228946842654
1.7958776730955217,0.4714155563864041,-0.5522230442809712,0.2029230208512997,-0.8323555731042287,-1.515744114997232,0.6329318177555108,1.5475052013300616,2.41333579465741
-0.3853135968617602,0.010233061019587049,-0.9815086510479509,0.19905969557347003,1.1631637521549596,-0.6002168771587947,0.46210347426327075,0.06980208499001891,3.0676115051236454
-0.7982972445384537,-0.38770155993598415,0.28586539072490497,0.6585442726728304,-0.6127886904843862,2.0102045387663496,0.334456789987025,-0.1769472274940494,3.624553076103716
-0.9365920062436421,1.796665201675017,-0.8534954800613416,-0.9783079498224979,-1.0990392245318592,1.7984800871381175,-0.6694369136334904,0.5529052285994815,2.7112637497789596
-1.570500603623177,-0.09833962679474989,-0.9885911071509175,0.17989415115347845,-1.6929568141953855,1.3920022863445993,-1.103589317215771,0.918316606002313,2.332886946063272
-0.8005903423481054,-0.3283752594168024,1.1077210959824486,0.6443105001082005,-1.1678653072917102,0.1464756116533182,0.5666021483927255,0.5233237827285886,2.866403234240286
1.336657357758983,0.4527563520766945,1.7073298095592229,-1.2783526288023244,0.18497057507315626,-0.8954279609250417,-0.7708188027286894,-1.33656850031492,1.9410598027010537
1.341475915530881,-0.5057467042619367,-1.0589075870566005,1.9625871905307948,1.9541574337502863,0.0036956718478473255,1.4816634024625988,1.0114630354083562,4.452995757593131
-0.9483480042242007,0.8902475008365087,0.17183933979353122,-1.1755946056248516,-1.091933900395313,-0.8950698422766047,0.5532512199847837,0.5972282182533848,2.0490362297735802
-0.8533994740391114,0.8444558720716657,1.101737861786209,-1.606256788401958,2.721912147906493,0.39495797032330715,0.49199348683649613,1.0729296145073466,3.637059987291729
-0.1423794850212935,-0.5993750229537729,0.005243699718183166,-0.45006547147924364,-1.594427658794367,0.6228499323474987,0.046980593764742055,-1.0676204293825944,2.2510594939754047
0.2820342192093425,-0.19547264358597383,0.29722722158508635,-2.1239928181256356,0.8197397172580948,0.4136162575716805,1.667256841749534,2.135586730077366,2.9342180382442793
-1.2981039036871578,-0.7248610838000522,0.054051662846000936,-0.9560585516833945,0.8100272385061165,2.3176367886738785,0.1255485866511483,-1.4072934434924025,3.3624757743331837
2.343654052812625,0.4793609534294223,-2.624817056374112,0.53102609489421,-0.561842099351699,0.1488768039176911,2.549009708717722,1.1815677164191463,3.9279040569947563
0.31695200698411535,-0.8098900990894081,1.419035611367264,0.7298193622676307,0.38571084053145244,1.391920887679919,0.29335203632298334,0.021888821164834777,3.591895999793209
-1.8337057676294346,-0.4502018916658434,0.07386343441088038,-1.3404886413664368,-0.9250846204786352,-0.3198262778887562,1.193586535476262,0.14431001943507885,2.183951200474584
0.651136241823657,0.08568716140335904,-0.9254246260595873,-0.8953463223630241,-1.0138959522925377,-0.4081008391602206,0.2553837556743171,-0.9958153947902291,2.024941553985774
-1.5028706086823893,0.2587698052439216,1.1955313880867093,0.5045818144773903,0.6376058122312086,0.6265383633369425,-1.5189697808133147,-1.2395622860802396,2.8830317963655947
-1.874892064047533,1.1625736681878402,0.435546318992364,-2.3960822883304163,1.1535028497815438,-0.6789803464631321,0.16648527257714707,-0.4805744132024745,2.3938462568269863
-1.4228769078115544,0.539764512828342,-0.3265358525345711,0.2023833705986952,-1.7941435111986004,-1.556951086706478,-1.1709248938074537,0.03971382171963468,1.3411302997303025
-0.022278979183713316,-0.4482246163001494,-0.6922503292658964,0.10343812930810638,1.2528426344274837,2.042076040143744,-1.9689231424160831,0.2773584619646759,2.9781092648845524
-0.6929095952606542,-0.6226995198205938,-0.20812225035727522,-0.5893647569442115,0.28099186773503265,0.8496020970210246,-0.4930009346588328,0.35701548596504734,2.600297429933811
1.0354434164169448,-0.05751775300546313,1.0753434019568977,0.20953423026279433,0.4929864585144592,-1.0916251721591026,0.2106684652031108,0.23384802578959837,2.659145827602923
0.048084946661381994,0.543360192379935,-0.6626237589458467,-0.7632591565425169,-1.6694052811213718,-1.804882100664519,0.5705986685931593,-1.6275424378831627,1.7080259087516028
-0.48423407286625136,0.40498171096095553,-1.2608839543350452,2.1221561970126332,1.7654542402810969,1.0324652605511468,0.9178619470547761,-1.5193699659540134,5.0
0.5846229524867408,-0.3056324424067956,1.048203967675276,-0.6003386590064871,-1.372409737561307,0.5935394322931908,-0.8381764823315314,0.003060116738572855,1.9411104112774789
-1.0237559477078506,1.3744849814275593,0.8066764021643629,-1.0040796329550274,-0.31667954593424946,0.9443852228353897,-2.9431415654717332,0.15165727214501756,1.7665241875912552
-0.150614014629933,-2.0746400375463683,-0.09195678260426586,0.7946003829452114,0.2730107174943857,0.9736222494278469,0.016025282295160426,-0.5035696189077175,3.0949482121959235
-1.0361435719751968,-2.085792438905004,0.9737262308523678,-0.7734558440334302,-0.3432059268430377,1.8987349813552388,0.2987977803217619,0.08701648039238655,2.821479738983519
1.4980117703044276,-0.5036502603755963,-0.17237495745366196,1.277856655030514,-0.03302526371956056,0.5704873308635735,0.7147317275176998,0.10172320847176979,3.658579447005424
-0.007480796740746615,-1.1797767493745086,-0.029351702115694548,0.03302330719303323,0.4891783506377937,1.3469412443889957,0.39530725264933086,0.7740227740710525,3.1147023200697177
1.77080063563551,0.12200981464536144,2.5600845382687947,1.1492733262856758,-0.5756378262377739,-0.7031764251258874,-0.09605989972464987,-0.0349884904969617,2.938617764725242
0.44176064964947936,1.9824704501689276,0.9537602558113537,-0.922351329061918,1.029604361419693,-0.8193868304987907,2.171802667396602,-1.1889411180533487,3.7131868189172303
-0.6631645901261828,0.669085210267524,1.8690665036782608,-1.6651252963040444,-0.49945119288521345,-2.0017401674762616,-0.7542981326071427,-0.15046814149498222,1.14982244725554
0.9057176004973654,0.14707682744597397,0.5105353784512363,0.5303691889987993,2.037210639718358,-0.11955875662639608,0.20173865479604391,-0.034564239843803336,3.771216130815355
0.3454141816438536,0.1358559015662905,-0.09600066173385824,-0.4362630321800288,1.9358610256806046,1.0481167592691547,-0.19805976321890642,-1.0685207540824389,3.4694382826414665
-0.513196364513396,-0.5391227031489786,-0.5482687949250771,-1.10486279306252,-0.6078752606758179,0.22054142701386686,0.8333339117803071,1.2179591523055584,2.4678627369839097
0.0780074184788575,0.31412949645066596,-0.31608296112297335,0.43915013370041756,-0.24897365528067522,0.8331794312701818,0.3143386831314305,1.2827949688389804,3.35351418594992
0.655403829850237,-0.966156723370417,-0.07938842440570287,-1.0056013756894657,0.8728243510056346,0.36016418394576694,-0.3004659487207037,-0.5376457577798165,2.4282685500236303
0.5883172064845765,0.6621306745210467,1.586016816145352,2.1330333746562666,0.11351734525124804,-1.9520877995225019,-1.237815498826849,-0.15178509503558332,2.7347084030221556
0.4676901038588855,0.5422030069090485,-0.33787777547380676,-0.27464374936629743,-0.21208966992042563,-0.4572185393191959,0.0022316221624020006,-0.6891117977217902,2.5985986761141033
2.404837542253973,-2.241915934508913,0.20545568703630285,-0.8003354061653037,-0.6673333812164803,-0.49898725597911187,-0.7756066046023912,1.7448614066234935,1.2694508492993415
-0.3849428884100812,1.0719298652117972,-0.8792827824119881,-0.12517442838316423,0.48730523704499484,0.8468821038849139,0.3485951198609804,-0.11522423255219759,3.4651893633755493
0.5405895418122408,-0.6938044179018226,-0.09931433779203207,-1.9545930044832756,2.0512469432694633,-0.31039680375596906,-0.2724269009308716,0.8810621873806654,2.1568793713108425
-1.5587869950238415,-0.8424326301263264,0.750872779401332,0.9720569657397219,-0.10199471663593199,-0.01330463537863531,0.6544310271056212,-0.5998220233198494,3.2780226555884036
1.5730197252148563,-0.29660745906979835,0.241321934916781,0.38632331781156,-2.529560077694303,-0.20447122098612153,-1.151014083619507,1.75547569831549,1.6512021388492861
-0.3635732949150291,-0.3278064598765229,-1.426018117120452,0.8293237725828624,0.5207561203587112,-0.6316515245136439,0.39387321816474324,0.2912027551380325,3.0599225706654978
-0.45709625658627184,-0.5327008396619114,-1.169916835710288,-0.027514905050636255,0.5136001065697166,1.772251596669744,-2.8722622132816493,1.66125921454787,2.221801850102011
-0.02203486400427045,-1.6922708316433286,-0.17038576538819597,0.8280588148933092,0.4990958161377494,1.071080500402805,-0.8128235903365649,-2.0744863510163114,2.9752838006156717
0.2502002062516945,1.4015985929464294,0.6504500925361392,1.0519476177229186,0.4183982208886837,-0.9980606273144129,-1.503080301759818,-0.3839712719523516,2.7251861616133475
-1.1062935124116342,1.52100622715938,-0.9489165208248372,0.9321915642603847,0.46667098196608103,-0.23655528721894603,1.7473631979155582,1.1356201471829441,4.189259916184736
-0.49190244750620515,0.058022734808395225,0.8484308822052846,-0.6067002947652967,-0.04282338131157488,0.21128369227947272,-2.246889333984605,1.2000789564268612,1.7249418249020922
0.12354769595558233,-1.3993061748019415,0.3676492929914216,0.6255080168310357,0.49986412374037137,0.885231482988991,-2.100026507651624,-0.5923559556520536,2.2468446374018725
0.48060859334734735,-1.074661039432863,-0.7823539225019935,0.24748054764010466,-0.06727746491353453,-0.009664421313347188,0.8531653064131918,0.8789639730706512,2.892690518755261
0.29657267669430815,-0.13954204292790354,0.25678325732472285,0.667065472728354,0.46041564984282407,-1.5450564074064352,-0.22847254380954055,-0.36331200838854505,2.524543364256224
0.15776143929376948,-0.7284616216803428,0.31952467078295543,0.13988723283912738,-0.37185788227866556,0.996118214911129,1.653617268492285,-1.3902219251534627,3.6546121069205197
0.06573766004728737,0.7673073626024868,0.14425352228204003,0.08486545836110417,0.48721819463042715,0.685619374218483,0.33078380653823597,0.312865651490911,3.4677622522926965
-0.32417686104064125,1.1364555743248452,0.10311792571720485,-0.9728278925829571,1.2523463622980082,-0.03756350936619123,-0.45144539032493364,0.569758919704179,2.8267071455482955
1.399486426972343,-1.4069434005131694,-0.44184892724082386,1.704592093297377,0.31996519114516303,-1.1081124582588693,0.11088638282841785,0.9760407193559466,2.8763028449303105
0.7219034854381414,-0.4068852445043747,-0.5347566708443231,-1.4972576451786446,-0.23591652931212392,1.2809395766667275,0.29497145570882155,-0.6654222981294605,2.5854812916087586
0.6916185751213884,-0.026260793269852138,-0.6245104550885774,0.03149156226199577,-1.0455294856740531,0.6900736763366125,0.7469808401047098,1.087710426157866,2.9265534240099105
0.3090468350240348,0.16823054118369438,-2.161303886302362,0.6603430545626816,-1.0071949875269783,0.7475461257864594,0.48253370982118504,-0.3950468521695675,3.1477499940026954
-0.7318573084158859,1.4950303097358375,-1.3129685299472729,-0.8022718339345204,0.16279661809991253,-0.5046337422892345,0.39397522586440237,-0.8031108339533145,2.792607231898471
-0.29540141013902943,2.589563642018614,0.5796331732135757,0.19438430157733602,1.1873860515647512,-0.35316629281068834,0.32579631658216646,0.33848384346169114,3.8758347673187252
1.1618783026081905,-1.067802921579193,0.9503075919735757,-0.1044492185374715,-1.053682419146354,-0.16882172319001063,1.7106133725819253,0.07005216311318138,2.813292711403993
0.9945582357416216,-1.4089191026905246,0.44489589500988425,0.8918630221607488,1.031653774575175,-1.1132948341146311,0.8507193944606469,-0.6570352370173239,3.0766291652461883
-1.485560373036972,-0.8946073022195039,-0.18687164416135904,1.4469778843537329,1.2557561255735208,0.19655477651157463,-0.4397310582741749,1.0318445394686349,3.4716657095260963
0.46248362406685406,0.22423474453529177,-0.3464265060068996,-0.26265952031616774,1.855503314794263,-0.33638694541113623,-1.611567359102828,0.9603047962814704,2.572201893015278
-0.4884760801103597,0.5179947763914519,0.02620475277403566,-0.0809173376626882,1.0071572005966691,-3.1704257358780557,-0.30356432526591504,0.21060083929764178,1.9955751401396198
-0.8505204542093001,0.38115838488277776,1.2897527540827456,-0.13845598398377382,0.7533416211045325,-1.2242982362893657,0.6731813512699584,-0.20902325728602528,2.8656414047941206
1.0571222262189157,0.1713682811899705,-0.11564828238824053,-1.4785219903674274,0.7384665799954104,-0.7198442083947086,-0.3011036955892888,-0.4606387709597875,2.1397401019604274
-1.6685840738775894,0.4363236696740321,0.03800347816820029,0.6135179727304166,1.7275431701007113,-1.0227925651984056,0.1200313267182613,-0.2573765374233451,3.4314768775377447
1.78179890877106,0.4512253193185082,1.1834936668899279,1.667224111551137,0.9003985883950636,1.5232386217122582,-1.1780408673763807,0.7356219972457467,3.8751648244624795
1.2715550949941588,-0.37144086599579146,-1.4075116947178212,-1.1105758454658288,-0.34268759408034877,1.7522704434236227,-0.7778166875908753,0.9356783931474612,2.4224238432182403
0.38142561753434195,1.32099578954071,0.10801412097950092,0.957993941480019,0.40226807720129804,0.663545618498435,-0.9066485451542928,-1.0260808441956244,3.471723207113486
1.2477420726737338,1.7495767431869393,-1.243863235391285,-0.7184072655691974,-1.4026052717996935,0.8949243769444413,-0.6929051977959073,-0.2949496782920278,2.432213133628661
1.0819848092499422,-0.7191094514491859,2.049812095785926,0.7821300015314592,-0.8239354869719996,-0.7908993816675531,0.000682818957482628,-0.7798529462216388,2.4762510203317363
-2.390304367469438,-1.3327773974796497,-0.3494393272169559,0.3791531187261241,1.2495049007061587,1.2302221756507876,-0.7725687487562407,-0.5969742867210739,3.088277362520232
-1.3820175686924376,-0.6516751221564157,-2.1943824698200243,0.7031425422200039,-0.12854629325195685,0.5332073178993125,1.5994709401137894,0.16540366029970424,3.5921809080542175
-1.1338303568063541,0.42388948244398605,-0.9657826328639593,-0.46675881195144053,0.8193732681394064,-1.4829844319824181,-0.5385736732966242,-0.8176823966051338,2.226288023478221
0.6534789819517407,0.18087111148243243,-0.49154441380690456,-1.7680567191743972,-1.4942635290662387,0.019545844798181757,-0.6270486146977409,-0.05275510800076566,1.3678548648089714
0.8177662992002871,-0.8984679817910373,0.028181157369128247,1.085895565831578,0.5365098435704035,0.4746982328799528,-0.009118996644203544,-0.025026958745143917,3.230412832376706
-1.2096410186912054,-1.5558956462036273,0.33088023221445706,-1.9937356425714554,0.2337859117907477,0.37405656984757213,0.8335289616089246,1.2276689924732922,2.204775593934043
-0.29987747449661223,-0.546407619463673,-0.2822405919232288,-1.162938986852913,-0.9384671057410849,-0.3574150481706999,1.0507742904721133,0.9530094982140498,2.16432662480478
0.166655817359844,0.1612995426626951,0.6441237678501087,-1.7523770951409967,1.25228366195664,-0.8607291633953384,0.08198881382471937,0.6723893376113824,2.3363648062747893
-0.6777153697521061,0.2992925804064919,1.301741289398798,0.032004149065766624,0.742095372009307,-0.7534178703461835,1.5615111967268527,0.4599721429391164,3.5318265318605016
0.33396514967619034,-0.5334524457759005,-1.026625482884179,-0.09514812307732015,1.257613112576651,-0.3884799067714809,-0.4581369898417196,-0.21600142157311336,2.593398960979553
-1.615846470966832,1.438169201145702,0.1652400500649252,1.6372116447028533,-0.1720413592654725,-1.431354847054427,0.012521864329786338,-1.2855991140527723,3.199270549782622
-0.8330560570007587,2.6930336639804966,0.34980002456790754,-0.09546424708907303,0.18383451632250436,-1.7762463334664518,-1.0040545968420103,-0.08059974929676088,2.455898506019688
0.15809487586680993,0.36575998609291555,-1.9415678006202213,0.3461173287977227,-0.26454589870472217,0.49201428056689855,-2.3849055089505824,2.0642201348524107,2.093285811696071
-0.4776574467651167,0.24822058630033608,-0.4593608995402441,0.8303358165442456,0.18186625505849516,-0.8560838259088672,-0.8498443694647918,0.07156623721939247,2.5756877608895943
0.37721187506452086,-1.0265152994110602,0.132969674146876,1.1950466289248425,1.073631749859772,-1.5231869047837747,-0.7001208149391732,-0.5589218472715883,2.567133315059612
-0.5294669635070083,0.07569494000509344,0.6855897462984164,1.1663705456692521,-0.8063769291180498,0.5309756619640905,-0.1416485860101269,-2.1782113197314303,3.189274143067816
2.067906338163552,-2.4932708203300775,-0.965664803523208,-0.581782033392054,0.5027448074908146,-1.1738799644089726,1.6291663649009451,-0.19793772898468187,2.372499801247052
-0.573601772896901,0.7181857257079345,0.4384757388097273,0.6728612359668199,0.7153813154412441,0.591814133741378,0.019616657693989903,-0.3540407109410238,3.644344341405708
-1.265258409085215,1.0628536930332164,2.3378277453883,0.5342078623746747,-0.8953543736592,-0.7267419048820193,-0.8607568017018197,1.0409541737977894,2.5691865006319534
1.0578010075419184,-0.19543484652276386,0.836484137964941,-0.7507203344928128,-2.215822425020668,0.7927110177336647,-1.0677225770385452,-1.4766572235180533,1.649754777414986
1.0440251294423797,-0.5076941283897106,-2.1268334877992654,0.27168358450003066,-1.8582914882251074,1.5907957421712526,0.03162197391024777,0.12063476089345412,2.663795253989382
0.28872366282502326,-0.8463159774657358,0.543479378670093,0.26402008133367,1.2637066776546686,1.2723535001067678,0.1998104337187135,0.7324921027798023,3.5622014059544256
1.3462257562027482,1.063940987560856,0.2525688459966235,0.4441983272906719,-1.7760117540484022,1.1013229577357622,1.3845320475939062,0.46654531145012695,3.488778754821572
0.609138120907177,-1.4137144969049802,-0.11122606134870032,-0.7355299425897666,0.169360824036078,1.2360931752104374,-0.9039076414647897,1.091310120594269,2.2933201742068596
0.02131164867194222,0.6713400764504657,0.21319662823768915,-0.31905393566661816,-0.1601327955666404,-0.796025856803489,-0.7519693317388191,1.0760071385985983,2.1492566990357624
3.193107567844861,-0.2523535021262876,-0.2918112689155441,0.883109777147159,0.3230792731160291,-0.07783719701280203,-1.563190808696657,-0.18047991359062565,2.5683490994321114
0.36414029605466136,-0.43112556957509907,0.4080528468367557,0.44477380783159476,0.7828737349485725,-0.8256536828021421,0.5507975722736632,0.1493634822711889,3.104137913535554
0.6700496718155238,-0.4647672239117277,-1.1772264174512104,1.782905600065144,0.2172079375284009,-0.24734038702515676,0.4685401615460691,-2.3789960407532242,3.522992305928291
-0.45389141615312834,-0.4211988166129132,0.9764313771980682,-1.0989162547281939,0.6844504776364279,0.6874267551265042,-1.1321491407160067,-0.0885442145830127,2.2397051770736276
-0.22056594026731396,-0.7704247991378789,1.1433615302058282,0.2521948542342867,1.6170449245216825,-1.970308581351401,0.18485865406036467,-2.2029133532057186,2.558971880076909
-0.42657125283057357,-0.3933511248228728,-1.587188069678454,0.6235257988258587,0.7152365838912327,1.8054168464197806,-0.20731609600824458,-1.197957962340662,3.538934682139762
-0.5318777502893286,0.39946937260218507,0.31047275418075143,-1.1569413972294713,1.137381097628914,0.3225046602899047,-1.127263792554147,-1.3641059938183584,2.4813788748660643
0.1846338585323042,-0.3220615162056756,0.8135172173696698,0.22745993460412942,-0.7832532923362371,1.307142754282428,-1.2308643164339552,-1.6074832345612275,2.6025741033750998
-0.5309708978119645,-0.4853058353678683,1.230874513154735,0.5628808601743548,-0.742484232538384,-0.8798143535020543,1.6850142787085094,1.9870611116994412,3.0530899927541353
-0.0799084526625497,0.5166444459359673,-0.9813259365174648,0.10720796204013365,0.029430591677552183,-0.3188463554947312,-1.404816943927507,0.6264346724539442,2.2580828935122295
0.7418222943901266,0.13965368956535082,0.07333674477813668,0.9671781224389495,-0.6003856928711058,0.4939773822056448,0.9687698956813533,-0.36234755754610226,3.6026900170973355
-1.1047746736415167,0.023385214658507663,-0.8644267053357196,-0.7504101277546562,1.0073043574732625,-2.162032299927439,1.5895230361038624,0.4583890099570684,2.57004319142923
1.0745297902299311,-0.40611035702340326,0.09675491843880031,-1.4455181477453234,-0.44890838731300636,0.36191427073052657,-1.614749862291331,-0.7974381170700989,1.5652185817930846
-1.0773760769847582,-0.81240234893742,-0.049029340838036735,0.33085130461557777,0.678946987762233,1.451001438131336,-0.16036008104483077,0.8794170411374032,3.3929904692451336
0.3817341689625093,-0.021244779276242128,0.2935375299686405,-0.326673247509044,-1.9673250642259945,0.1247520996639345,0.24941768768504166,1.5154448083522476,2.1645534114095293
0.047398671316414016,-0.9043166251044086,0.6385924587773739,-0.06607979864731657,0.25972250172148187,-1.2110161997624567,-1.6615200622689599,-0.6518361078021592,1.527882798286294
0.2887280030098363,1.4967104074459814,-0.4949654803680731,1.149672018878747,0.48074457976798396,0.2965769385303051,-0.49757249830921385,1.2676515111879738,3.627526752816045
0.3014070697811174,-0.47364545765119104,2.9430483352686214,2.369287300811497,-1.3756340887863618,1.3954340821991853,0.7244910603817276,0.24180207155574857,3.9621215863782884
1.1211881425699046,-0.11359216170196468,-0.5434204297765169,0.2625028908518338,-0.7532037815909708,-0.7841638583598328,1.2638559390963884,-0.470755099124782,2.805906840285524
0.11502607914741717,-1.4575514994649306,-0.30920907704986345,0.31917451041918043,0.08243975293450329,1.3404504460231446,-0.7521564055905832,-1.8751724696457446,2.7123650850986563
-0.8192578597214978,0.15519068385897913,0.8250982646676347,-0.6581164890752567,-0.32789471651291785,-0.30372602877666466,-0.8671302157109003,-1.345870923473215,2.0800117445128565
0.5540577711159071,0.7211353625455816,-0.9162741005637249,1.1701987091966037,0.8814075289235711,0.13429649724779288,1.3554428011054958,0.07959786237603639,4.230008495788637
1.163000969705304,0.007560180394133265,0.9429386198972337,-0.3524537316377418,0.5269813913637531,2.148296863786959,0.18125394834505026,-0.09390356871304721,3.6280770162814497
-0.6568942789713957,0.13653533108273744,-0.3653215513121087,-1.3471262895296965,2.013387247526623,-0.9716140385106515,0.1846803058649084,1.2004139079444254,2.609244813592546
-0.6629009175509482,-0.429405541125253,0.12229750303228377,0.04886007032570433,0.12522450264790727,0.04059169120388238,0.5432980290363879,-0.7019916878067554,3.0236563592925028
0.20768768716311115,1.0807807255546218,0.8339221545489041,-0.07016571145864703,0.5597904479310398,-1.6609609335159914,0.4591800792284367,0.42961821913258585,2.858653422286785
-1.3158158164275071,0.3076126681891964,-0.524567013767051,0.4240668615184512,-0.14037505890533644,0.03944704824073949,1.3522026788671444,-1.4359095238685275,3.4907656421847912
-1.008086310917404,2.075400798645439,0.8711247034316923,1.2012139221639448,0.2897748568964129,-0.4080753730215514,-0.32602353216784113,-2.038124535177854,3.53217394081582
-0.7542758500193579,1.1870303055603801,0.6387302220291846,1.633431532301096,1.1055259329579838,-1.146345393018688,-1.1430049127304835,0.30263546523903323,3.2108305588003074
-0.2634482160822491,-0.5388418561927383,-1.008554684076208,0.3496500472996937,0.26044226333355597,-1.5648027713620551,-1.962625691672579,0.0953441994413082,1.4932143546101764
0.45780560992578473,0.7441857103150346,0.42154608353656126,-0.33912227927003874,-0.23596998721097162,0.37006111526895535,0.2668183962954019,-0.12373268009975662,3.0109060825017178
-0.5117635579423034,-0.14152963733784743,1.598321807641033,0.008783654898147817,-0.7342333219710379,-0.2376833169609843,0.7335478135058658,0.07660907045165961,2.758678782561727
-0.23955585893709952,0.6946691241185846,-0.43651486326554356,0.29522475834524275,0.04729874312872792,-0.6794449849177494,1.0716803738905898,-0.012024028913188147,3.1982216465736895
-1.8429369062476757,-0.47606255777786693,-0.49061223402665266,-1.1208969737681593,1.6641920547838993,-1.7047757442280442,-0.28275932762936834,1.0525473107347487,2.026151451000449
0.49150564724678364,-0.7119732272589228,-1.5428032182428997,-0.484173951248737,0.9863765059059371,-0.966246319753254,-0.16063111952549436,-0.17537845589869072,2.1283380243232726
-0.9253922576429561,0.2680504275897533,0.7151743901280584,0.016124787900472438,-0.31526633391625575,0.14330630500000371,-0.05111869301537766,-0.51590531313234,2.7862390215551724
1.8055744326868153,-0.04427331984464883,-0.7289592500331622,0.1802948805034444,0.1869902097246643,-0.8148681489093441,-0.18901429768247416,-1.4762625440017794,2.4763384345066934
0.40865281148067084,-1.3659557112005343,1.2119439853864005,-0.36927713924620315,0.6835693232004776,0.14338846734225108,0.26125053123385605,-1.77623523289832,2.7916889560923446
-0.2116669819311769,0.03003147916408217,-2.1523835446091804,-1.5614932224418594,-0.8617030702562581,1.503419828428999,0.8764556455029355,-0.3301200939664503,2.6350221292895153
2.6068591631497697,-1.0188699570667352,-0.22777097912363464,-0.38611277608614164,1.0400578907933893,1.0152208918143053,-0.9400159321237541,0.10798392072522883,2.7060027407123592
0.8623934723827588,0.9475264621228578,-0.7728776678236091,-0.971656734541286,1.1241127199860135,-1.3796181647889305,0.4070522871245351,-0.6267172245899651,2.592732152752564
-0.3365525898781734,0.38343503140364416,-0.40930847409572124,-1.1274960989530387,0.49470565377503245,1.127908993253569,1.0059245117964166,0.15449366559525113,3.4165651710100615
-0.05023810944913695,-0.48712538376469605,-0.5923939242388692,0.04852162794482699,-0.6506425691218269,-0.8309501164110378,-0.863990769679816,0.2704568257798388,1.8590932052801965
-1.6313351104170732,-0.15774698323148525,-0.6416668201303823,-0.8561698406617501,0.718417423471641,0.03556607403299353,1.665351917623531,0.6523061516102304,3.4016399439516656
-1.0042905634942532,0.3359681734405766,-0.2728445463401307,-1.0984092179625526,-2.252793394731339,-0.6191229482499316,0.9701750825678591,-1.5065252580391153,1.8491711305450194
1.569628586939493,0.8596307868548461,-0.9820194972109048,0.3849664160476343,-0.3248579264985461,0.7985666731105902,-0.6867323955673516,1.1209365124062458,2.9682900760924893
1.2619215007139917,-0.36961033604363397,0.37710039390218647,1.1260502507721681,0.6215718898560508,-0.05139372358848624,-0.029262813684978354,-1.7730324682068814,3.3569834111243515
-0.1650805650030461,-0.44480683817049027,0.1390286869531256,-0.9258899038911499,0.6909109573921928,-0.11366668908143539,-0.04512289032405165,-0.14365952989711814,2.468134632063254
1.7230747176462498,-0.6798885397361863,-0.7959703738504983,-0.1605596095017974,-0.8335982829664064,-0.5552861026010363,0.1918895450216474,0.427962626552635,2.323327093033882
-0.8767737812118448,-1.3724655478841008,0.32297450361766816,0.5002404694365699,-0.501784192811532,-0.5336003064391669,-0.06100397185538355,1.2208212988130478,2.2742023557336566
1.5761725277413785,-1.249564911924005,1.4336336088178778,-0.684812109738896,0.5368074692249037,-0.09426907076490067,-1.8596630405497985,0.4123559690859481,1.658062764179986
0.308292063638821,-1.3452096708086025,-1.0034389034995035,1.4164117917002925,1.3897641339463556,0.7732399866657592,-0.3313522990878492,-0.15783750984025996,3.6496736185411454
-0.552692953783497,-0.25111783464244086,-0.972162217943325,1.4341770365203266,-1.7582088766554351,-1.7394252442322782,0.07957954655656065,-0.8002227353999037,2.2093292587465676
1.2531328247682434,1.040061819902576,-0.7397711639729673,-0.3856726309778482,1.7481370691208353,0.43450264609130573,-1.3346106069102326,0.240205843946223,3.069801850623963
-2.0417348684242906,-1.1583646891925428,1.5033983017671506,-0.22096417382966393,-0.0036025390905684044,0.02688583899453078,0.8773622905756714,0.20838280794755248,2.8734961047049765
0.7226748248882985,0.8778260312391258,0.7907593122325293,-1.7681310327067183,-0.14170872170182425,2.9928105700606413,-0.022030072516940464,1.745858970273136,3.372373107304652
-1.3698029795790778,-0.12982069973342616,0.0438114719791096,0.9638791167949097,-0.1852876588777083,2.2105230015913513,-0.14700200162848862,-0.5574917850078336,3.745464661496895
1.0578141808207961,0.3794053976051097,0.690472686121513,0.6577631761503737,-0.21406769772786138,-0.06953228624226938,0.26561699317253346,-1.1869933883057446,3.1474046031333343
0.5161440395863797,1.3098651694335341,-0.07434532975852426,0.5923295470133433,0.1934485749917961,0.09931381495134962,-0.18455144218594516,-0.390408738280471,3.341809004398522
1.5944423917491968,-1.0513099116393445,1.4974316831796264,-0.10343122429028392,-1.8316822472060261,-1.2390527025266425,1.8577023435377324,2.095843501809159,2.3316257198607557
0.6778753195309076,0.23836898273478513,0.9751976297824297,0.1895816165987434,-0.9273531341905741,1.0010460925671412,0.5010941699398452,-2.703232292999237,3.2031841572160893
-0.5237313027714218,0.4935602043342916,0.2908970575900059,-1.1212437400943918,-0.059826143529903696,0.9294099847908155,-1.9955317804517385,-0.13213658890154725,1.9084935217751249
-0.8170886310681906,-0.14451867071551783,-0.7924199209999613,-1.8936146669537857,-0.6751782749743815,0.21329370737293857,-0.3079615296390403,0.0012054753622242368,1.677852402610274
0.11712421614985134,-0.027384320403744018,1.953107198272574,1.5360611817095284,-0.27036669676116976,0.5975377058947282,0.6869566320986773,-0.7113032269494793,3.8000548627402813
0.19408999289830758,1.5774532797634744,-0.0952955323869521,0.6078965097165392,0.24938368371075526,0.1866091231563581,0.27902152577033923,-0.44643361455052827,3.6167781009248765
-1.0196643386921156,0.5142547560178349,0.5720574417141441,1.1243533598705027,-1.5311075025557221,-0.3340772309799405,-0.062191016999311004,0.5646059258936003,2.839715386100484
0.4919191715065057,0.15039378647620763,0.34175597577715944,0.9504238381860503,-0.759132661553698,-0.5769036556624031,1.8761708392158862,-0.898414671348358,3.546731513518566
-1.889540730945531,-1.4307751021180481,0.12810441491078928,0.8406435489887241,-0.04015795064434341,-0.6526239793023909,-0.6810516574748808,-0.4461834332147797,2.2098474531830314
-0.9310017116324415,-0.9647897376296856,-0.4146305088140306,0.31444459087485255,1.1870776787417554,-0.35895838517941375,-0.7243025342076668,0.7297729370341954,2.6286016372887397
2.0777775851984446,0.9080226625361912,-0.7074395448121878,0.32699451327009765,1.6389605275998331,-0.8351245039722351,2.209855665748464,1.6529130512304218,4.086369932353601
0.45721306369251385,-2.0495145161883253,0.3735336834117687,-0.591018455733432,-0.6545335709983099,0.440059929023145,1.455434483915325,-1.5681443134200506,2.642193865043669
-1.2992163634458243,2.5115565515844236,-1.8400777445057528,0.6405429350747734,0.3467099776049199,0.12307820165618115,-0.032280611049470324,-0.1131280525157404,3.577718177576319
-1.3505559643429832,0.94881309647162,0.13069002446438233,-0.47579544400490115,0.8707466445884032,-0.8261119917145421,-0.14152575336694828,-0.6870140996994973,2.7465334555065968
-0.556717897857163,0.33237683351960967,-0.3764225545881953,0.5838830222840011,-1.9899462698211248,1.2841046951788975,0.3160678697299512,-1.5072258203839384,2.947223462762696
1.0989833574419647,-0.5001978170959958,-0.16985235767773066,-0.1833007095261973,-0.3733684250030844,-0.01979434452070797,1.6367399618306397,-0.48231357093630295,3.0674168404723967
-0.17749188377428318,0.6959321009408497,-0.5166141987601078,0.28004534269740444,-0.9509533830944716,-2.6745671281541408,-1.0232532233755844,-1.750975574405228,1.4241515070781279
-1.079532852166039,-0.6951493580768724,0.47314545326778695,-0.2378070374259397,-1.7554378973107099,0.46643128741231693,-0.7029114380395675,0.5206894964226687,1.891733996392604
-2.205566057099069,0.6197114459661363,-0.6353623888256293,-0.6243453897132241,-1.876552706041874,-0.18452535765584954,-1.1896666590903613,-0.6047446645382127,1.5031564280727394
0.8545252270666157,0.9022771737866472,-0.9077561801469204,0.5107920885275947,0.015618333949603047,1.0305805856240573,1.5192839236417688,-0.6578345538521371,4.165977796283553
-0.009159038534655271,1.697623779709341,0.3320814614168105,-0.3207838618519991,0.638543317267599,-1.3620433708547575,0.6461296760241716,-0.6838489004995763,3.0013461015152374
-1.9320651585199595,-1.980836470922634,-0.038323835697372494,1.1067745186243287,-1.1574157902154336,0.41478446207924113,0.8187659708488161,-0.963396341198569,2.7706586047347357
0.6089053562546319,0.8761691671912328,-0.6683451948468017,-1.0584406336416528,0.54090851856099,-2.4980610174929394,-0.0610756713523761,0.200459631413729,1.8012114635489327
0.73463754545933,-0.41521376790527154,0.03402741107223205,-0.17909328501615626,-1.3495762115515322,0.3958197810959231,0.11137260184005242,0.6928557558178116,2.296138192532278
-1.5473039889383655,-0.8603850107795019,-0.41360553342164424,0.5565531245337582,-1.907807557877391,-1.3354815690998914,1.8876876573401904,0.486036289417637,2.472313860265563
-0.8729610904537004,1.9412174364637491,-0.8783230771797389,0.2314459225255723,0.6654168236917787,0.6464895377257707,-0.3780078990182172,-0.21566763754763232,3.6087936482980565
0.7717961772356612,-2.837506441397379,-0.016610342325908987,-0.4536363875916828,1.146027575013415,1.7262265456356325,-0.10581875749769788,-0.8873294588557712,2.88938615178654
-0.22347250523693915,1.086380711205838,0.3333698512608781,-0.49913895147036563,0.5682733771527843,1.1971680272478535,-2.4928104993953535,-0.807591340098296,2.4910141475172587
0.9067872729323987,0.19200423696867674,0.27751585888189023,-0.1383352820163779,-0.3095098859272293,-0.3774234011303297,0.320187854921873,3.157771283044298,2.768838641674815
-0.7449026448064491,0.7083038472010638,0.3514482075415829,-0.026521259249060063,1.188913371474643,-0.8818746512277178,1.0701502383164274,-0.16306696394376388,3.4746272079590863
1.7522919091220317,-0.7621334485140979,2.585975175683896,0.6132655446611438,-0.38418166570697554,1.1377767806686623,0.41905073475346005,-1.4213499453185472,3.399278640115287
-1.3303136257389898,0.5844129804724842,1.9764405845154855,1.617212574968624,0.10589445311523424,0.10435593752321293,-1.5642416117110514,-0.8987840483231282,3.0727840206872865
-0.7480960646216471,-0.27751361886023346,-1.0363092473737703,-0.03658997434293117,-0.6286543050745702,0.6596499980823705,-0.20346114108030489,1.0901834710204468,2.58680398274529
0.6683404887180808,1.2748750412787222,0.6515219913395057,-0.20149153394751798,0.8970661968871322,-0.006521315229458062,-1.1376856704248166,0.5987943895619102,2.884893985855833
0.5389100436846587,0.8816397569494505,-0.007972641316617372,0.0773683076476183,1.6871416350725648,-0.8612842013282637,1.4799441388900259,1.5231240772696573,3.808654054241382
2.154928677383142,-0.22938233185546722,-0.24861585376667736,0.04556388114189831,-1.6167133749480143,0.6234071382799156,0.6266136372630708,0.7034401331388942,2.649299850047506
0.1979166673420755,2.0420696529278803,0.2952799406208684,0.15712791899094083,-2.3716593608588923,0.17618982250269238,-0.7764991404930003,-0.6668487169515637,2.2780654725302445
0.547264797377967,-0.8254105299789551,2.9490944253087252,-1.3510743662080213,-1.085150526557798,-1.3224579567435701,1.2446795807367868,0.4818660617184915,1.9044751037653944
0.5159392177040995,-0.7472116791478234,-2.4242402602729416,0.7368438970924334,-0.021367294348436157,-0.2813275571182134,0.8840453963610497,0.06699071722487192,3.082114269020838
-2.9213504834946074,0.6931056072631441,0.1764415552772252,-0.8275902206487197,0.42881650033057295,0.08614388304637476,-0.3670278390833223,-1.072139011985607,2.6908442301232953
-0.7280029412291344,0.9039348410861953,-2.3629324355418384,0.6191542610051978,0.4365598041576678,2.0574954697116987,-1.0097307047099375,0.020793707675407894,3.5040616189206704
-0.29175863225853715,1.4244958212469476,-0.09170602414512598,0.9976320769202445,-0.8360621521000247,-0.2867942357382693,-0.8877695115385407,0.7595148874861078,2.8514695749686036
0.4631847952675847,-0.8610879101735704,1.4033699701251907,-0.4430440211284823,0.4097627959594974,-0.47949296739924335,0.6979032725390276,0.2965755451407618,2.7149567874808223
-0.19382613877280352,0.9375701376265584,-1.6075598643689741,-0.7691423497872982,0.6592456684324051,-0.9399031011088647,-0.7627247785662142,0.8294748419317485,2.193430149346117
-0.07576428653545988,1.4524675344707454,0.32674476460232005,0.6222071440434019,-0.4532484090230134,-1.1388331177807691,0.30047435961082836,1.0391117874202687,2.976009992506213
1.5013336519554867,0.5366527525272862,1.185704154662997,0.9960476858058164,-1.0469109826819396,-0.7567950885694608,0.7189533106650667,-1.4218106667418438,3.1145272676120714
0.1602688574175767,0.3044922016801448,-1.0575146702934315,-0.11657134645332866,0.53034290167058,0.21416894113174983,0.6233423006748285,-0.976620315863556,3.3351854688826443
-0.4030658680367221,0.6604599523515503,-0.3854932409123582,1.167741925527779,-0.8766970856192929,-0.7750449630162398,-2.0713771793381572,-0.8544934627380543,2.110070317864393
-0.4501892648514116,0.1973157074055956,-0.6176518954343502,0.6157711497711416,0.08865759096143744,1.2038844371688162,-0.31607285602704976,-0.13944627568099954,3.3596342821044805
0.6445954324151765,1.118549944255326,-0.526531687096043,-0.7641867866378464,-0.20528401949625125,0.8761739316930753,-0.5235759884065829,-0.7094311573284758,2.8109440547794486
-0.33708597111803934,0.5999287299962045,1.5307508323436974,-0.213442870930208,-1.2096947428411076,1.490726136849952,1.2187618516973167,0.14866745720211155,3.447751579825584
0.6929186230316111,-1.3810446031537749,0.30381859560487573,-0.23086637384476896,-0.7859860326349823,1.4532606633210343,0.7215625051261435,-1.3386057997232488,2.950439092344496
0.02443184017803416,0.8264033173305246,-1.0660321716276806,1.9120054690526975,-0.05843011899748824,1.1640601525859375,-0.05154220860765155,1.3491790488887052,4.1052917140716385
0.5061576554607123,-1.0733280322228955,-0.4288479256060734,0.6002129657442777,2.9356579023277782,0.957932055215684,0.4158368362860605,1.8076085077692632,4.146606314548412
1.114321694668872,0.7846042878980238,-0.01926037973439464,0.02246589281204638,2.412615421612916,0.54711911517521,-0.2628908292082677,-1.1808128153088449,3.7280885890366933
2.196223142152799,0.8920675997317206,-0.5898923177556078,0.025210867540082116,-1.8418977729578574,-1.5431182279428703,0.6986888135170435,0.16429476537056906,2.0989885518331457
0.08184433452953882,1.2718995454239435,0.27798244021892227,0.04455216557115131,0.47139126276499077,-1.366114080933685,-0.8474738905650646,1.0579607138387925,2.4357460816635257
-0.467738683858582,-0.15195112347198586,0.8092586281232986,-1.525662409286842,0.1756035498043702,-0.5969720279011155,1.232328605214664,0.8201435941230599,2.50106342780308
-0.08071658010858232,-0.19634984908497827,-0.07160125941406395,0.7276295436369798,-0.2590421458207031,0.05194588580729943,-0.03722223650984159,0.7326400772155792,2.8662278393204477
2.2313001461926323,0.4477169258102776,-1.5708761520684993,-1.1939250063990554,-0.10730214400422888,0.14294309476370676,-1.1267674689098053,1.732514999485092,1.9043313319462802
-1.37383482489866,1.452755545126183,1.5287478505409084,-1.0084487325473497,-0.294455757588034,-2.0858978777333372,-0.08104596472174376,-1.4720370730267915,1.958938013500689
-0.11717200497437547,-1.4582131138187504,1.6301299648744103,-0.5892537307950677,0.12342918170364875,-1.2534017182950186,0.37034026732884573,0.3959142209580454,1.996872782360137
0.07964958261392499,0.09112486725337687,0.10769944910661848,0.6436687530224908,-0.07083684791609023,2.0773434395699533,0.9982176559717297,2.206468979884672,4.2163934605475
1.628396623128538,2.5797093376543185,-0.8036745679697308,1.6777008140764407,-0.08828204835125482,-0.5535882417079946,1.6391168054440675,0.5689830791852754,4.360194657460275
0.8220660780325274,-0.6292121495294424,-0.03204749416371351,-2.2175910793587708,1.6505729632328479,-1.1681778278502002,0.03352470238858753,-1.096875079383986,1.9444525695965842
-0.06003754168856451,-0.34514688113802716,0.6879329720514281,-0.05704116685294176,0.10705745299229676,1.1839874431968893,-0.6129832712706895,0.3418252139549665,2.924598672360623
0.937915537510655,1.9114190871397234,-1.2804555710024668,1.0074439731951985,-1.0708524186844388,-1.2549226680022925,0.18947982122108065,0.1847104747810833,2.939297926309449
-1.0710536796490489,-0.42076179368105326,-2.6042138566271342,0.4367385517335095,0.8868873900973003,0.40429475496169764,0.19894814679649453,1.235782191822154,3.258749011345984
-1.745707432859652,-1.5978721344948377,-0.6300249795338944,-0.19692180799688955,-1.307369782230964,-0.46458107811561833,0.7319555025098458,0.04435879751560705,2.062019419916714
-0.9784995458666064,1.2024512479830722,-1.0952705188428047,0.2790838583451852,-0.024232833869692147,0.29156367668197275,-3.1767038131960006,-1.690671627606452,1.9619385538963248
-0.9500634974661272,-0.5764195763348439,1.471034690817104,-1.0370660735699961,-0.23130094292969944,0.66536893503283,-0.6994952201676432,-0.7961368031864954,2.1725723592233526
1.2784518626072987,0.14671368643332283,1.2065089665083568,0.3686733088729012,-0.16711808031685435,-0.3933388123273607,-0.8169356709872361,0.028744822934817487,2.5370440600984883
-1.4358621511794394,-1.2477831819648495,1.6324113039316352,-0.44004448669698376,-0.2525681513931603,0.13074057728609134,-1.4301413779606327,1.4412732890661155,1.7801265131402118
0.34992371524939253,0.08747375368073924,0.23304295152948393,-0.5878563049080002,-1.1433389910838607,0.23061084876621443,-0.7180647836182643,-1.133421018292623,1.954509295795521
1.2121292042334861,0.9784578056665502,-0.8105286298216263,-0.06844649266641564,-1.9473424741408143,0.028775564080998586,0.8569755369827861,-0.1850976494212187,2.7471807147556317
-0.6060838322196587,-1.3661983376689175,-1.0814133807392872,0.5163966677865788,0.883606785994169,-1.245051223503995,0.3358472647200691,-0.38281748098675,2.578908256130783
1.09877685198719,0.117327383308782,1.277664895788425,0.5470973811700379,-0.020901593964148132,-0.20219265243389406,-0.5915713888358299,-0.2176812032272203,2.7573346248600075
1.150267395898296,-0.39732325255136186,0.5343648986363834,-0.8515399797793188,-1.187765239917527,0.006273156184418285,0.09109360625591317,-1.531535315243643,2.0560549408058417
-1.5444338482482443,-1.580603940809169,1.2445651603552557,-1.3208783553773176,1.2270345970488723,0.7714017949037666,2.2314989110277486,0.0011099446872931465,3.526556355990848
-1.8082953284995145,-0.06611239395200703,-1.709226399202596,-0.08920329769166797,-0.17117936979639942,1.610292980482871,0.3916980160104727,-0.9395651672539582,3.2891205695077836
0.6190329465885325,-0.007688995721369474,-0.38787578186246957,-0.49156193901893,1.2334060763526695,-1.4127257589005562,1.306072203871629,-0.5168468831738285,2.965158945147468
-0.047711356141979855,-2.4238793266289567,-1.5839028234857233,0.7858001586508322,-0.4523063192490767,0.42545756178496474,0.7604146561442974,-0.966976143129213,2.7563662641956928
-0.8341848487326238,1.3924559414830675,0.6722934080404022,-1.4787771238462857,-2.4036686011005304,1.6722659040975276,-1.5004765491630017,-0.7373799034979586,1.6848970180310865
1.3355704555367565,1.4137696482912587,-0.029172699226560628,1.110911144734433,1.4239538455411669,-1.5008020152621748,0.13931963072955983,-0.32307574267702455,3.436540928833141
0.7638603516334226,1.0743330047702437,0.4964001177339411,1.1801281737415277,-0.4877053729487446,1.144293068559939,2.0750650393485417,-1.387868550455802,4.632551476831281
0.13998209632135372,1.5283315634862455,0.7570320650539775,-3.2415138253291205,1.6000978468204783,0.2971600238082216,-0.2526248688026368,-0.0018287588441003935,2.444489154252714
0.03263883669087142,-0.853932908460056,1.2904607413763498,2.0487082576988507,-0.03509646678459442,-1.6254922701998327,0.05519924253008922,-0.5567787728433663,2.934129610597928
-2.025807873111377,-0.9878733409007492,-0.8468509661253646,0.7793490039053323,0.2837510236615011,-0.03901951937754412,1.2496189052966666,-0.41790954576589057,3.446066365350553
-0.7507296070055988,-0.5974788580244034,-1.4955415364982039,-0.17284567481411092,0.7492825568794513,-0.4357644969706192,-0.012298449308057612,0.44231686816448523,2.6906877176868362
-1.4247481862134568,0.3142473325952739,-0.9080240755212109,1.465648768921554,-1.0128311203344238,-0.22577630048653566,-1.4123037013352915,0.06752820468792384,2.3684970616081795
0.26930618956233815,0.7531899497325488,-1.0820177850419361,1.46644239118858,-1.6102631187918002,-1.4092157980245135,-0.3386690538837576,-1.532598234597762,2.3840036601722696
-1.4162270557926455,-0.31823752774262026,-0.7811563781311142,1.5985381120963413,-0.6786430612941032,0.8021284586181193,-0.2598001407675125,0.8622235118869771,3.3437927786787114
-0.4986338957884514,2.8243305910030463,-1.3189684983025107,0.17962227263192343,-0.6411142602246448,1.3451476204524146,0.020106466869098387,0.35973897512678843,3.776028099244065
-1.1702807063967748,0.5187930174517212,0.8635282425215212,1.1526481032616924,-0.9983067752910549,-1.217403793496952,0.17146931759039094,0.46795042213185173,2.8821701359774368
-1.0990447515548727,0.4060561224280809,-0.23492427152097461,0.7978507013821389,1.25761905635936,-1.8734413039546167,-0.8935150925192802,0.6458904202758925,2.5355560739109686
-0.28067507686677406,0.8534155587803077,0.7589285897867651,0.10420110395187607,0.594754341665286,-0.06259312789952241,0.2811914239693758,-0.7539645888666763,3.267478517382471
-0.3532641354381582,1.2744402278489033,-0.09534109119668262,-2.245585897565163,-1.236478286592349,0.19540322128332027,1.7303218148571686,1.9186063338762078,2.4968381276855114
0.5278393499155871,-1.3394697749577562,0.1351903409873859,-1.3453354874152414,-1.481580771551368,-0.2811640424645573,-0.3262337044413596,0.5053371476473485,1.2798999046341493
-1.2331013050148552,0.366746407892257,-0.3838747413307828,-0.017894977008350053,-1.7690503037393988,-0.9764000486637974,0.20228040762121913,-0.045254301964336476,2.0648451683457827
-0.5927028229571065,0.7704635956872266,2.1934495502883857,-0.05678859588627712,0.42876125888076383,-0.8904357529426616,0.9557039711138672,-0.5642898527190192,3.225477670272016
0.25675079866178757,-0.2926854589752769,-0.6181604486836274,-0.8258327732380476,0.15140739062477757,1.846395920599248,0.8985117045515645,1.9333597477143571,3.3590592606970415
1.0237095461069814,-1.3122191934314063,0.6220699903060487,0.38680852068920263,1.0817667276728287,1.090980425185967,1.3289333195354096,2.012270445700765,3.995388547178547
-0.04541121793223822,1.7193779062072967,1.9925153531681183,-0.5495571359085801,-0.6058608207588934,0.8595878869798019,-0.7666565877833479,-0.3871306497895146,2.9253375401213675
-1.7240618108680354,0.7132662507965424,-1.0259648174807778,1.4678504449973098,1.3142265757035791,-0.030263057596985755,0.6072890151016929,2.598822900074582,4.106456654935126
0.30638948207341404,-0.5691481986725339,-0.7971135662249808,0.43494103836789866,1.5904035685736386,-0.3939866812431204,0.04092474872892285,0.5377681903684838,3.201153590256417
0.5725827813561586,-0.6819842479977986,-1.0016200098949155,1.7976865268495226,-0.24717738252059693,0.6408428612670098,-0.2811002928859549,-0.5711789897827968,3.253410550232013
-0.5393050144632704,1.261519252535516,-0.6671890847775054,1.0960699074773985,0.35625278870608357,0.4253213083301104,-0.732968899123759,-1.5449373466767586,3.4071310501781844
0.38292171005726305,0.2569974455858305,-1.323649570842179,0.8775475534514207,0.6552336285137607,0.351662354974059,-0.435901469090433,0.5686446160127705,3.2965244338297945
-0.46507594620100606,0.6041074554390441,-1.6171718900455445,-0.6300484313483411,-0.9085025115121911,-0.7341618661210141,0.3463127102248866,-1.4464982035406873,2.2985933751924588
0.21915032766393897,0.04643654815614881,-1.3598561409799192,0.6454841811410754,0.19109906801990334,2.16325472330546,0.7462535660272207,-0.30777823495300083,4.05517697320797
1.500274609000988,-0.8610496721655755,1.3771809365045613,-0.363131646817078,-1.3450144839306688,0.8544020011207198,1.0200365069020898,0.34121584249203324,2.80219787198049
0.4547409121411344,-0.8043157596599924,0.8953554307625996,0.2531652380379812,0.6295295842218108,0.820344012612456,-0.6315777291653314,-0.03361256470371301,2.9721056105135752
-0.06084952000292773,0.2956655514819996,0.40329960416682403,-0.30152629576934714,0.21668909749767315,-1.4844390681934263,-1.825657995664608,1.2782809474594865,1.6715700197753858
0.09715578708624777,-0.6684549108531777,-0.9980946277690352,0.09452756758846836,-1.464974746104889,1.8060891178369614,-1.754284852822499,2.666905222320009,2.0366934404546497
1.050654396007612,0.49568188797260465,0.15041890514357642,2.403415585238275,0.8700677306887542,-0.05761879703358539,0.3649610024662254,0.2010990467149675,4.274862281560727
0.775115121589086,0.638677139880301,-0.06357353918612146,0.07557637267003782,-0.17262913429083468,1.0488641418753621,-1.4509278911112242,-0.029216405853985244,2.7963559191494802
-0.5002610165866755,0.8085710068901167,-0.2643558332034669,-0.6026243046145574,0.25062823210330204,0.001783041104608902,-0.7742038183529005,-1.059211708372902,2.500526017469236
-0.8550954744092049,-0.3266475631886115,2.002427467644797,0.36022603707742873,-0.650656621336195,0.5413212940082783,-0.3075714171157992,-1.0006293724832407,2.8155457764336522
1.7952113559123222,3.109918556005361,0.6067230591361827,0.5345056484805503,1.9956674897839644,0.8876554258738361,-0.18319661872038787,-0.3206676255571917,4.569530142204315
-1.2094353289590587,0.2688507864009919,0.20934885733468878,-0.4326595133965921,-0.48021443413239945,0.3924560184705202,-0.04504411801092395,-0.9261632634832083,2.6607231993822564
1.233724278336193,1.0821123129931407,-0.12903411512978377,-0.7589706989033448,-0.2573000006177896,-0.978740836309766,-0.8516621743343933,-0.2724100166036872,2.010918776933053
-0.933267959073196,0.5792914996010884,0.11958036841415326,1.1965715016644913,-0.015309849172995557,-0.15852957302697002,-0.9730689408815555,-0.02730453950993186,2.9700821408925626
0.3636318826249679,0.9216501119244593,-0.12754912037753421,-1.4511756900515589,-0.1891203907770335,-0.01208894784605456,1.5111549302473475,-1.252393444413119,2.946393012266401
-0.5442961463142919,-0.02518868352947947,0.6276804178744745,0.2637555848225758,1.0845005302909256,-0.5587995720623407,1.664641821966275,0.4672522151827898,3.7789337993278433
1.7409414865969908,-0.622270222893996,-1.8402663847955685,-0.5042980158126232,1.4697842587874956,-0.6078238926156243,1.3281660539573328,-1.765387587029974,3.1188172583405604
-2.230468019124459,-1.132784951267745,0.35037021638633825,0.10248464215820753,-0.9005903525360617,-0.48282759080691834,-0.844324037183071,-1.7811584144656334,1.8725523162647864
-1.235703022049409,0.33323053499002175,1.2991498205476675,-0.7140651179821788,-0.24733596389641815,1.17841931756372,0.6675480803699957,-0.29951503754747755,3.1265368341485122
2.6983288359370876,0.7980910486615617,-1.4241676001875991,-0.6411649293968504,0.8314988669316621,-0.2650649968885794,1.9116060670633217,-0.9026543599878197,3.542050515630803
0.9312801191161986,-1.763040155362734,0.324083969394795,-0.6769220003059587,0.3436182895684614,0.6116762888408679,-0.38508228041631654,1.030999522495951,2.2635911703521376
0.6460061871145515,0.22327083592026087,-1.7422216926352752,-1.0921212003485672,-0.6724855960063362,0.1353383478922909,-0.5460417988167212,0.9944473755089074,1.9393255749786449
-0.13958962815517376,-1.9982006845321076,0.9163276747024814,0.9980101098596522,0.07863519031609059,-2.8962553781936893,0.3464884758979927,2.0883747047807275,1.937841287915213
-0.2515388860444957,-0.6775646523356551,1.1941094030473725,-0.46440426230938764,-1.7258067287905967,0.4620608932518965,-0.9811655311396816,0.7833905092825955,1.7891491883759465
1.0383788510193166,-0.4711246518178786,-0.09363618873917084,-1.28716356858425,1.0826910538870733,-1.3971181851129912,1.32579664754219,-0.5835993263460049,2.5818643552016987
-0.2081168572725397,0.2871241652018242,-0.6124373746404379,-1.1437262073206618,0.9531366339132451,0.10855970577652314,0.36150352520610163,-0.0332299906444608,2.9123800298340807
1.6095206657759729,1.3739143852114495,-0.8523867660741036,0.6324542166423008,0.993782214530439,-0.47417817510396487,0.4753656106920102,-0.7717719573928751,3.6969257500816095
0.09982631509976791,2.1245562298290137,-2.7738149399339167,1.7256937928147706,-0.5161166418714347,0.12184446413245396,-0.17961972140563326,0.7534174734210928,3.4945209857067243
-1.2376624223272978,0.23940450053537707,0.49968511030293383,0.07595526791608741,-0.580053241370043,0.7426824183597224,0.4720022709192744,0.4822489526806572,3.2002877203120272
-0.05554769889661878,0.7175422557959623,1.502357052096028,1.6286155455712918,-0.26940683444455776,-1.3801014582148914,0.07409478041977519,-1.7033824393551547,3.1225542960629205
-0.43745830032341043,0.014688194729197093,-0.78489831308224,-0.12094814860778157,-0.1340171666729177,0.41953244390702776,0.648280433843859,-0.8874921778021001,3.117281641315276
-1.6837325676140487,1.4901375220998412,2.05451488940476,-0.3357859389797497,-1.5976197291684564,-1.1546343387288442,1.542806773769682,-1.0656826978195666,2.865555297904146
-2.2168188393540644,-1.7476365098282616,0.43477006455689116,-0.7955570679408823,1.7120402840178925,0.4243939378610126,0.47543068252662346,1.2795186697601588,2.9562505841881626
0.1825010305992134,-0.12372894627483615,-0.39767969361460404,-0.3998990621311371,-0.3828171896129687,0.269294752580734,-1.1840305582225594,-0.04489303012253698,2.1780648744409628
0.599450686321704,0.5198710181019115,0.21000830802258905,0.709410980586605,2.710331644334893,-0.14055348550243169,0.6151639842785803,-0.6312411362407006,4.241308156064854
0.0722883471248695,-0.12574629749577262,0.6712701367053535,-0.6275400027440727,1.4086194934459193,-2.0534865486558886,0.7460239529828163,0.36075575466383486,2.6340871981686598
0.44174673637755724,0.40327456303717174,-0.9667018907026598,0.10291739052323721,1.180989905305672,-2.3140440660001054,-0.796064137720634,1.6734418856229851,2.2136298064977287
0.05674168329681941,-1.081914368713133,-0.40328779191093866,0.9102157836647453,-0.0919684662030466,-0.18352817215715306,0.08452698378432454,-1.209198711239606,2.68224105631287
-0.3431922754974105,0.4676931717654332,1.0857863249393471,0.3080505395041023,0.25373966149457344,-0.3916485674217911,0.09798315347089544,0.26912694124510733,2.9959304948954655
1.5019529651885957,-0.13698957769394238,-1.1419418191613115,-1.6251212588825248,-3.1385146662340397,0.08291185317203993,0.059905256796438384,-0.4149162781203273,1.1286859977617958
-0.5059661989878553,-0.5101608136502173,0.14945608966330953,2.381713531732546,-0.3307748960230527,0.8272361076574231,0.7707502096187874,1.1598399663883443,4.1330094708149865
-0.8463566549908735,1.0800480657146485,-0.4473218956587512,0.0678555105274033,1.8732977762175456,0.8527736751222195,1.281016361735113,0.48473281729447476,4.406129562117796
-0.9398797863273552,-0.03269474809409311,-2.0674421000398766,-1.3044695005048532,0.3840654489393073,0.6696725488300385,-0.08912003951278841,0.36659824609684827,2.5126667081932803
0.321291470757388,-0.9106450871824898,1.2710653260070335,-1.6178006138153371,0.3603687159048611,0.3807780713650517,-0.9800623018406142,-0.8174081344143398,1.8226171823026989
-1.716033248310689,0.8652897561352498,-0.47687646064383565,-1.4605008994184878,0.053059312932619035,1.1912606816318325,1.677115870186871,0.6751370564069208,3.4248946956028883
-0.6122367345077503,-0.2797601684958344,0.7903718960517113,0.570612997219531,-0.2789629303318085,0.9681846605328611,0.34005129456889044,-0.33130838318332273,3.3481042562422876
0.8810588920574334,-0.7347432134727092,-0.19449148486477605,0.18863108156798006,-1.700627249651378,1.6080672471727289,0.6658778237063901,-1.0356040560453943,2.947798328355832
-0.6489985204731576,0.0812914250424811,0.48459137883927483,0.38082641834525377,-0.26836879913738076,1.3427218613511855,0.2674753888980612,0.2651639227465874,3.447169403044845
0.40482340880826806,1.4436703191662383,0.29137898481594593,0.8728170831783344,1.3465716626102961,0.7320809514330224,0.0321850870368397,-0.30906623673826017,4.072840605424385
-0.05429486651781221,1.669021525289393,-0.2595913513636048,-0.24574306408594432,-0.3357846992901282,-0.2727235697476705,-1.5031429531181062,-2.6968866429415717,2.166779394388042
-0.32483138350862245,-1.3230897934074983,1.642015160136369,-0.6881503451777238,-0.6389617476895022,2.2524358053443088,1.0098170893426341,0.9817654869915943,3.228484167581792
0.2658782296520485,-0.0007085945766459172,-1.2504077339697175,0.8823330623234091,-0.31305803052315434,-0.45209033283308037,0.6045153263553668,-0.4700421477595015,3.0048132616639665
-0.6097829043193822,0.5885784044206096,1.6699045043514062,-1.1958830620351844,-0.5805234498047227,0.4446026682201407,0.3946715298229811,1.196631486645651,2.6202287417557577
1.2307029049844702,-0.6072614140860845,-0.20020125430036984,1.5391423458106503,0.8900577324754597,1.5723982102703271,1.3992279500711593,-0.2821257769339113,4.579379374027516
0.3464482094969757,0.7818228717773104,-1.236950710878082,0.5219415656168976,0.25988279424842353,0.29698467323318606,-1.3204566130842763,0.25049285034587654,2.709313329803955
-1.879924385139045,0.43295982536069616,-1.3776175007542373,1.0213832954293984,2.4267164863455224,2.088442772869925,-0.5647740041709423,-1.5859833122379583,4.464665222228439
-0.02968879028597843,-1.153706323630364,0.49663461497989536,0.40016960520049744,-0.815909535148553,-2.0140632742377633,0.6351000115979253,-0.8668845848834666,2.014991233911518
-0.21359324220504247,-1.1541633847795414,0.8552015077482625,1.3137821765718076,-1.5255717080610838,-0.015471640726739578,0.26429021015325105,-0.8679754225283319,2.6647355342287593
-0.47126374070251964,-2.0820987031889873,0.5531491563792091,1.9234457948249533,0.242882013150275,-0.7746149700185819,-0.5482002981667726,-1.6891830379672617,2.6270742129876705
-0.39987823866837147,-0.30561061415380336,0.7309589763762161,-2.0903028988531567,2.7552177437199017,-0.1702582467959055,-0.6506598273683837,-0.2656045602861052,2.455584615917726
-0.6172122466479616,0.6558921377875826,0.9639069340758625,-0.7712002995492906,-0.17759599475873897,-1.7739696161121294,-0.020098751769651646,-0.68604975703518,2.014048248628978
2.5879089735306846,-0.8186050266600786,1.092106783982426,-1.3358624041686133,1.1910858547734768,0.7241365593144973,-0.5479053042069351,1.2907584241224281,2.557487630832366
-0.4033797459686826,-1.5858456403858474,0.17648418366295282,-0.07310730200893852,0.9853997114500495,-0.7907709190853537,0.4512260161360988,1.0159372235635562,2.631482109612542
1.5681824295273261,-0.5595462852894689,-2.83303029014274,0.7605061195841426,0.7864062119958165,-1.742947530486665,1.359189494164025,-0.6075687917795559,2.9975649496830745
0.444853537557488,2.4187777793134635,1.495458245242957,-1.972089026643818,-2.2185699659510996,0.28802836830548917,-0.2846255042536789,-1.4439255470737569,1.955526038895331
-0.45822302925650094,0.3465270183130004,-1.0084330205311458,1.53739673068429,0.6180684939300419,1.4141103906067818,-1.5297489550040915,-2.4874567587061294,3.491603145999072
1.1951774115114164,-0.4352481970051683,-1.4089607467920393,-1.4921020171453638,0.583837081539059,1.295207072669644,0.2750022982918108,-0.16206210203682392,2.7495005693499883
1.6845248346034518,-2.2494324542007638,0.6087355891244169,-0.5864151488887734,2.571995317494969,-0.6197721282538776,-0.5571305725722312,-0.9087696708079733,2.426830218673906
-0.5976676832548571,-0.3033500674771342,-0.2188662517356257,-1.040193719815898,0.21668311896428621,1.945195074276933,0.7662429750405095,-1.8210860692944963,3.356984788353928
-0.4124138182164804,-0.5505519317084877,0.31635832153614474,0.18106274277108234,0.46436986354657417,1.3032780373160637,-0.8852486861242225,0.5861658003927833,2.9220296271909847
-0.37753114855982517,0.34222557942434556,-1.098679373434385,0.6312243569717831,0.2726335143194143,-1.1512266575071441,0.04456961088927163,1.1049972018044145,2.6511885525019427
-0.30561911106831297,-0.1449045790814313,-0.44594371386116016,-0.3631166611555665,-1.5375847964491753,-2.00745686074501,0.11314045705302281,-0.3883469383011584,1.489607412659442
-0.40439742318396127,-0.07566560432583026,1.9725421767898081,0.5055892418358746,-0.07397286359437803,1.4891131083282896,-1.385987942398998,2.271449745422796,3.0285936823057424
-1.3410647133015687,0.019458255518883118,-0.13851224460722475,-0.30518884548075176,0.7093525144553172,1.0469117944881394,-0.42389004232235256,-0.33524408186802673,2.9893520331461385
0.47704082722312147,-1.1196698946261439,-1.2946814757209058,-0.46770120131189136,-0.36244094140313216,0.3465038817307158,1.1608267873785194,-0.04692057887918407,2.7858105460048956
-0.27512142825504665,0.19433346333823323,-0.14734022662150623,0.24945094593007222,2.178562173991662,0.3992281929393271,0.9639254230555709,2.492183998600687,4.089364175136537
-0.6500025808234597,-0.7191533192424201,-0.21113023882769444,-0.13125696709230472,-2.151815401329305,0.07685188295876821,-0.987179527151184,-0.22485598180807856,1.5180749431001324
0.06970426942928022,-0.44787764493195836,0.6581430360025633,1.5929640960273812,-0.0628938668998582,1.465210503481381,-0.3952835480161807,-0.8915434898545047,3.7039628150861112
0.9578396311082676,0.01934407081175429,-1.1889634195349619,-1.0461210850625042,1.592669998282884,0.4734074157124664,-0.0498801541281177,0.29094736433948537,3.021174895630569
-1.5355721232071058,-0.3020454994898642,-0.3294477863470914,0.3350580290841175,0.6791427754381955,0.3161559571827783,0.7318707042882956,0.46926758980852623,3.542296744377976
1.4104591452035038,0.08199555641356042,0.4572804046152411,0.7045065398247231,-0.7341737987784958,0.7890566873755189,1.4558223221467665,0.08382662792936094,3.683205461912325
0.5050210882737669,0.13592456721834797,0.08446678638994742,0.9562950020913461,-0.9935895155940362,2.324673305852818,-1.06925449375508,-0.017006074483830996,3.2252682523150167
0.985729995679863,1.4122205554154292,-0.07964139124571515,-1.0623935281468797,0.02421945667275807,0.4283070972076486,0.4523717962497339,-0.18714426500454878,2.9878716630344817
-0.9846336870179554,-0.032481035842094615,1.9126881343567956,1.9837041354787512,-0.32175270399020833,0.7571768211020226,-1.32484578093274,0.41709532442324604,3.314087100465479
-0.7331561971099966,2.8684030556667683,-1.6685992588781953,-0.17280173739646437,0.012499321907250335,0.7719201548366751,1.0587285298838789,0.44130715169924584,4.047452133426832
-1.2575778589146163,0.24650477843200488,0.49822174849678513,1.5805406865683735,-1.111457956937032,-1.0150941918278686,1.1401490385212665,-0.8108575112103382,3.3537584725956533
-0.36682441181468756,-0.022868062298882122,-0.9993022322949108,0.840620026504553,1.2969945465611092,0.5467335682013793,-0.5047749212282174,-0.23893209916969432,3.4459804078931557
1.1711676327061467,1.0831452126607344,-1.8385186232720707,-0.3677845265710552,-1.7941918665494363,0.7025333139338557,0.8981173241223475,-1.332448347894566,2.8862987564846767
1.00163182520856,0.8496119885162131,0.6928575842374367,-0.7999405067019342,0.14304876987895235,-1.9080021371233076,0.5825713188088052,-0.39305275706140097,2.1846400829596284
0.12645921906069005,-1.0179114904771591,-0.8221656066894069,-0.9004484613780268,-0.4513028643436646,1.4194556807978391,-1.2876052836530612,-0.9154770290902925,2.0158715433642733
0.5637878750069146,1.15469376671672,2.3674143640271215,-1.290942219493224,-1.2703620463250862,-0.40697436637337114,-0.3777648875224771,0.014004967371380734,1.8613367978183
0.4824724152431853,1.4535340771573169,-0.2646568332379561,0.6256673477650062,0.01300189187790702,-0.8571575564162826,2.720169166589619,-1.0708924980611123,4.09934343321887
0.6381869988485734,-1.4000712344017388,-0.10381248440296688,1.5920248985760834,2.3456241618964406,-0.5877379693198984,-1.1804604852320821,-1.443200793785794,3.126616334277676
0.18641616974404632,0.570507208354516,-0.5806483025539511,-0.09294420661358828,2.184096733380456,-0.23950192202174977,-0.6113852473886282,1.1168337755299542,3.2804547720436896
-0.8049664808525608,-0.6141225650083162,0.14098269961206,0.6954024745502987,0.1455211977682408,-1.1410085097527383,1.5886269280435958,-0.1115088271429437,3.1926215183525684
0.8199252526352343,-0.40436199269002276,-0.6862791357550845,0.1458364702153839,-0.6074722876203072,0.5852994365163381,-1.4326712897396527,0.5148835960763722,2.172792157036131
-1.333148008477209,-0.29969605666431426,1.5758758095019694,-0.726774137833843,-0.7617603706826457,-0.8776173568629051,-0.04779925038478981,0.33271932958518796,2.036726883181016
-0.92951086019241,-0.7584953347000695,-0.23040071420576733,0.8901984111247868,0.03279699541158651,1.0352493347237526,-0.9242331442683044,-1.8461878622380938,3.002113856184717
-0.19762046779596562,-0.35368575956700604,-1.2324312391640002,1.689188933651679,-1.0556394897985963,1.669922781404639,0.9524619705361694,1.2239487531460047,4.0028958037956555
0.6170059495766975,1.0971527117536957,-0.47883745600840416,0.6934789119139937,-2.1533429198712444,-0.3920126399191296,-0.8627757640431206,1.0599363840466218,2.208587617656577
-1.081548003614395,-0.9555404406004258,-1.6064463202575725,-0.7563507452843033,-0.12791759148076653,-1.4222537095976742,0.2034636358672231,-0.6465728842425266,1.7564005694224967
0.8598335614674577,0.28475459338556824,-1.9632891478389742,1.048399887813541,1.434309669352076,-0.08106710543541713,0.4608248654038653,1.7445838700752485,3.7885484940671503
-0.5791241096357465,0.6333268260712385,0.02263085267686914,-0.9849931258170151,-0.48827384245154465,0.1986800095474069,-1.4055630538562867,-0.07906734186455629,1.902861432772106
-0.827230943552323,-0.1599385299634271,-0.01901620790268883,-0.01851313599238993,0.8576596232020194,-0.2886586389201383,-1.0025293646378088,0.3227185603380895,2.5705513667633353
1.532367724678116,1.0450884740847535,0.14488783309689118,-0.35141423571373254,0.24930859564172886,1.5634133588321082,0.02390304328495547,-0.8184286659420014,3.5052223992882947
1.3641404299738442,0.31978193414253697,-1.5929937335316693,-0.019637798926681216,-0.6013676439512137,0.5524899544171478,0.440474737960399,0.22391413406466143,3.02672129958271
0.42834205066072495,0.4506130494313883,0.08277290378542575,-2.3843067887857456,1.959837254744675,0.7451508642848174,0.03678283317423478,0.13416641599584353,2.7533837106968235
-0.520630606562299,-0.367074646018183,-0.8965855406471915,1.4916738588018077,0.45635597313269627,0.7248293734858318,0.5734474933553989,0.9229775651404308,3.783990582339933
-1.7607627591558177,0.02127157673606165,0.3088330125989638,0.24075317948856828,1.2382830714336357,2.601683114180395,1.702214944635238,0.5655096456315442,4.935926547160048
0.6863184569567008,0.8925973382993092,-1.2111719292807812,0.014273067836434106,-1.9701038177118355,-0.9539394193966448,0.7307641190665245,-0.4070363129267805,2.2499919406790494
-1.2249998886600506,-1.1285906730970345,0.9724439979180102,0.3630042848060769,-1.532683970923734,-1.7210775209604694,0.87278741446961,-0.35840357551288854,1.9204174919328403
-0.9943550656308734,-1.1965579286166865,-1.4935097782531435,0.7209969529056358,0.35834451107600324,-0.5451862447263219,-2.123947582700665,2.92727009247333,1.767557510359139
-1.6127158711896517,-0.23681860674000887,-0.48536354782910346,2.3146585666735087,-0.7728252145375718,-1.867265192591748,0.08187413938632256,0.6862601903745135,2.737976809360709
-1.7632366989034851,1.1799885296897865,1.0522111559570586,-0.22694246613792435,-1.8750073874719364,0.4000000056135664,0.09743411029730303,2.2887906608802893,2.589982664689443
0.3754558576272528,1.6748596729140648,-0.274802304752688,-1.9988889068612499,-0.32948930021798606,0.03402958634668099,-2.2012434734509183,0.6137708557899086,1.373841349992666
0.5576910607251245,0.23070090571868349,-1.2601647651725802,-0.375196380323937,0.020886488295961788,-0.31771509675623405,-0.6163614080394775,1.2816437950037687,2.2945511950105937
-0.36920720044744615,0.47004418736820214,-0.7076258948220261,-0.11066536855732945,0.4322629506341555,-0.8966422273152082,-0.7121738641760436,0.8419836954521269,2.4024241804226167
1.279464931657751,0.1435879365051602,-1.8179792253871547,-0.09445871444200275,-1.9511018640386248,0.41960997202411815,0.7597122954841684,-0.8638829605897661,2.5949189192026214
0.5581395145185063,0.34233783448962146,1.5541604207147741,0.41486550036191044,-0.33513778117145177,0.4632885301181062,0.8539759765522237,0.04351466864346608,3.475059936527271
1.6554071130882952,-1.2094769354188053,0.38897872935218375,-0.1942691319785193,-0.30085974714082625,-0.7557915001583629,0.2514736089405121,1.0487071264165635,2.2709760318958288
-0.795988910008754,0.6091355190535136,0.5724453061551018,0.9316659668680948,0.46425123812300356,0.39537368118566585,0.3970466698823999,-0.31267716965327597,3.8125648438788797
1.917259148426123,0.4705098473785568,0.011862679180784205,0.7399440513793163,1.0581700938241017,1.6797473822215292,-0.9807880084135592,0.3421060396504182,3.7328793587469846
1.0984848760518187,-0.4268041949352576,-0.2589387965783906,1.1188945979306693,-0.8208789224096867,1.2744284266875814,-0.1878594010087195,-0.17167365392478334,3.2923919279944585
-1.0198013336945937,0.9907108466240852,-0.1210210310095643,-0.4037034339979068,1.8480401917708498,0.829149035059542,0.7271712595339491,-2.3910785652839595,4.0374265748601985
0.7396754681178337,1.5889403284440828,-1.2422465335492292,-1.0962203248685651,-0.4888861190436912,-0.0678713816994819,-1.125587114031969,0.4316316296375973,2.0757516026769336
0.08416823018569615,-0.7469232850701676,0.990166238959289,0.5265366836723071,0.0861108682589779,-0.47741070619280046,-0.21713107494620248,-0.6498268854974364,2.631373166782832
0.9242701395378298,0.38961417737090387,-0.8682927318763665,-2.6357477390168778,1.8709651753717822,0.003375506597160999,0.5346290861224353,0.32782117284308526,2.5682456909614557
-0.6902762332372047,0.8967973320332352,0.42232479744987467,-0.0709053625273688,-0.19334094967962276,-0.33516697322638483,-1.1286345143792071,-1.744532888606054,2.305251452031942
-1.1471595110117114,-1.455054605090552,0.3019609001717647,1.8686032191630024,-0.816154989028044,0.0348075404998322,-0.547407522766873,-0.8021994080351792,2.7586069644305815
1.1628385775349859,-1.3331283547778066,-1.551512249058929,1.188596823087008,-1.1571166187132709,1.849362141386381,0.6620518347584732,0.8431053323232401,3.41776062175468
0.3883120054234496,0.1722543864110375,0.6715311717290534,0.8875039674140593,-1.1793691216326172,0.7608466543114778,1.5280313593878327,0.06008599461516361,3.724172725755395
-0.19050310599781134,-0.22954865536034708,-1.6394841625254342,0.9965705105794472,-0.6039806259692295,-0.46649537922819795,-0.39247110606087293,0.6404797952008238,2.591413846853011
0.9623451692665695,-0.5550167015441094,-1.4023692834238248,-0.02243605198057349,-1.2541609869956039,-0.05795054176271757,2.091094272732477,0.5880766751678318,3.043281067958671
1.2378163119734618,1.8314587658543537,1.179440120721287,-1.7131345290908775,-1.3202332070206422,1.3538723741654128,-0.4691756521047048,-0.11453984525261789,2.531120173273198
-0.10633700253131496,-2.132595626154836,1.0126374096440718,3.2430929695947333,0.2810092502818063,2.3079162506161106,-0.1581538443723203,-0.18144906924751675,4.392840749248615
-1.5297740801093362,0.2690526930157071,-0.9001602278736629,0.28638674395539016,1.2065357234543024,-0.18859482914748824,-0.4134487034717953,0.9389571782348514,3.087956635338506
-1.031955242094435,-0.38736196455281124,-1.0986204251778122,-0.11348064588214118,1.1395555360254692,0.2215584736242106,1.4205042872710631,1.2347519140447951,3.622238814100013
0.3604416762927729,-2.4878220575623313,-0.2217814037161355,-0.6314025555665582,-0.18403239919900272,0.05252636821531626,0.9693693024080543,-0.7559507066919204,2.29851169857547
0.015027750287097009,-0.44360683020738595,-0.8538230875043771,0.6989530717174212,0.6882053064528827,-0.6290378612036109,-0.6431833420270304,-0.11765493160216407,2.6642411570063307
-0.2885329006817962,0.2112093992244567,-0.33953015666598657,0.6469045232565658,1.0219627766781416,-0.6844404020861826,0.9609321786082614,-1.327798673479431,3.447989395898519
-0.9464907959884281,-1.18023173420037,0.41870457829236835,-0.33348628096969524,1.1402505526712048,0.8852563208659603,-0.013973228476073308,0.8790141545570074,3.0730555740588823
-0.7281719009698155,1.229990368438683,0.9826831427699412,0.5872624134641767,0.003147726906326633,-0.20562785364324765,-1.4000707231830092,0.0828325705180999,2.7380046813663914
-0.1539976651978317,0.8715243860879341,-1.2511991366336779,1.5794378916948595,0.14342656685749322,-0.6117596395045849,-1.5325182768296637,1.135947845943822,2.834247331410095
-1.3200225112207058,0.5514853760404675,0.043602446372453724,-0.622649361734452,0.12320480678448567,0.1946074552372427,1.695051040430753,-0.7424705856980482,3.416603107666866
0.8563987943234723,0.714000494092092,0.47323762457354485,-0.846793718068405,-0.2234627853258509,-1.5148472246858646,-0.07282891265687277,-0.4465149520670211,2.13828565342303
-0.30964971398806124,-0.8388926740257363,0.06783851391693768,1.44194500580189,0.6863535550145331,-0.5123742406766936,-2.0199273321561364,0.05586393984449697,2.434426576790348
0.852433334796224,-0.6516003476058171,2.1439440893253257,-2.025142586657607,0.045571839903813784,0.18645431476942764,0.6339190223180112,-0.661786464768388,2.183526163794546
-0.25276325509618536,0.6688401305462182,0.6719446078144975,-0.9944285217997922,-1.2699985973938759,0.249548189598077,0.3842020720058965,-1.183056184734389,2.4407018483313543
0.417465089821295,-0.7386974983295628,-1.6270049208667487,1.2525407310292307,-0.4124790118879367,-0.7790194215199856,2.0225902305694814,0.27242139665360987,3.44388439371592
0.2011596558728393,-0.024195606390916165,-0.9037018607301281,-1.1790397911598025,0.40373009033660945,1.1876793884615637,0.324359281721603,-0.4646172972983931,2.9486556802321204
-0.1590452104000513,-0.2739930818293042,-0.24338397937501807,1.904136589573007,1.5628887685081978,1.6259589153620633,-0.29983819627488056,2.218780233448134,4.3139070134008195
2.0538186900865956,0.8095944359718859,0.5308943142159493,-0.1231364353522676,-0.7165734884241052,0.6025802679783409,0.858139070934016,-0.44565030302999453,3.282188842372128
0.36064789143579495,0.7510994545073101,-2.0650830462563206,-2.077811819856197,-1.9754877712171375,-0.3202978045366419,0.02845758118315888,1.643378155804534,1.3312106099513326
-0.14720527868559727,0.1158245872269461,0.3896045240919878,-1.1979664292172616,1.3784696274615047,0.887079776446287,-2.220421008935126,0.2867741123825862,2.1743326491584103
0.47154238041820573,-0.552920837367302,1.0018248536819372,-0.782003492511037,0.6647027453331099,-0.7597031174802871,-0.49757083838520716,-1.7710685530880912,2.081097477272794
-1.3340254949182044,0.9407711879882159,-0.9824873935383096,0.5500520990245519,-0.9896281365703375,-0.9683444548636353,-0.2246331499970246,0.1053755061459599,2.4307506357657003
1.0470983026121545,0.647195939702741,-0.483186462299374,-1.2257656630023412,0.39922312260527926,-1.4643748802098202,1.5739867632900328,0.22445181855997204,2.676581499546209
0.5863640187550933,1.173473857485325,0.18102155870370695,0.3996879517526416,0.6628812686674127,-0.651356893791829,-1.2968319479558466,-0.5286166817497568,2.6966533959972123
0.604120889588518,-1.2935076252040958,-0.695694877197064,1.2395840064415615,0.07125374991089249,-0.39622967810175985,-0.9181269834165748,1.0683793336940164,2.4066377458709862
1.3883377782084478,-2.120700152635066,-0.6068651778571754,-2.7475048427252347,-2.238231233324972,-0.4997301761516306,0.45768658605355206,-0.5262478565174211,0.5
1.135620585491476,-0.38856822049120293,-1.1238784051255941,2.45987198502938,-0.532143890173102,0.781497239460632,0.3780462604278832,-0.8642852619405358,3.8838679856475173
-1.123494033239598,1.4473056993918065,0.5681032051286461,1.362562852712452,0.5062409893059261,1.6406145634882874,-1.0496554989099411,3.152056734512085,3.936761740356872
2.006092888159123,1.262584103427182,-0.5518581458924467,-0.5642475986573886,-1.5256563145700948,0.18455130319703697,2.5581992856682523,1.5421099525678756,3.4573342374208154
1.127686294516429,-1.1340201859349581,-0.34677157676671216,-0.22159969438503932,-0.9291363405097582,-1.4409816345249187,-0.5857927234486902,0.9588163064676725,1.3966167715002804
1.0472764085594626,1.368094236814898,1.9669169625082537,1.2497104201843185,-0.7749628240639848,-1.05649707062526,-0.03914402696834188,1.075221541181916,2.9937985176420705
-0.12205713212127726,-2.3161438629688766,0.8580141953021454,-2.018487864388638,-1.1996975283653082,0.14506374595938162,-0.8281962729652346,0.7931756882186773,0.9085224155288969
-0.3459193290471707,-0.7135846699071758,-1.8207602778020162,-1.3919583809517313,0.08451847581532725,1.7041020780591178,-0.7057734830953651,-0.11510969392323915,2.30629247383028
1.1195749114345768,1.3668742674445247,1.6449677135012837,0.5765569630557664,-1.5151910621985523,0.3112501545435361,-0.24903603955637832,3.0788808084552377,3.0083079427811916
1.1539007342557472,-2.832155598110569,-0.4511588584089988,1.2002617497388293,-1.5193460754768424,-0.463161362085399,0.5517407999109204,-0.41142660711600243,2.196699213996499
1.4980976334877842,0.14775590740012853,-0.7618246716588487,1.530334564354411,-0.11447237179886294,-0.7780947858327143,0.2103671135408869,1.1718101432738448,3.159166393402922
2.5009004979342815,-0.11000549870105147,1.2920603343265227,1.315508290940104,-0.1792510253569118,0.21049629892150362,-0.7491717266032418,-0.16041938197534772,3.1356544081901276
-0.34409802826233293,-0.8729889668893527,-0.20698458909836875,0.8223504708957536,0.48058675842771265,-0.836980354439587,-1.031025275147307,0.5519642593318276,2.3081715626923627
1.5499344050175394,-0.5034756541161992,-1.5506634310661327,-1.0623037137261049,0.09965136508764122,0.4735924306351816,0.06856297480602733,-0.9194242342338032,2.423100835872636
-0.9096804393124754,-1.7378046158464995,0.01804725246822428,-0.5996399948212037,-0.03658003987684579,0.41195299906180954,1.2106745525421971,0.8515910458931973,2.7609515214881366
-1.636403019206485,0.5568747223681456,1.8640485304117584,-0.6996008087023639,-0.265920074195552,-0.20937561331191326,-2.141430880319705,1.4548261741466506,1.7583767449743632
1.6639862798080995,1.6478776057836733,0.06832212993981754,2.3059465859677397,-0.3559349170869707,-1.3993421658487708,0.12631251458699935,0.7964303666421104,3.601353382839628
0.20832250862559215,-0.5998213939170615,-0.657134962278058,-0.6534628957248072,-0.5667051080550528,-0.38654161589775976,-0.6977189038982449,-0.6355410988155566,1.7219616517301297
-0.181224173218103,-0.06613261462582246,2.0997217891665154,-0.3583401520212222,-0.4367197360405955,-0.6475418056351592,-0.24702570074599667,0.7441919714999368,2.2888443290725817
1.801430099266488,-1.128062554807694,0.30989477938063453,-0.41462690057186313,-0.7661208306106709,-0.9951739598992374,-1.2735855485965992,0.5496831862902597,1.3273498761703761
-1.2126571326233138,-0.13260407824049675,1.1770006367903372,0.5363892188475762,0.0689061331209721,-1.6711471647953489,-1.31246730344855,-0.8383618800008077,1.994922374755609
1.360115900180313,-1.6846675772263868,0.1909165241437107,0.14693529838668778,-0.07587145068502332,-0.5221315700199924,-0.03633060804234174,3.0768603701805035,2.1425889346134284
-0.9989363762455913,-0.10200628012726169,0.67101780491777,0.9389694687047921,-0.541473006507169,-0.06387783283134668,1.067997778058972,-1.2540226524285165,3.4560883270907277
-0.6888855425754056,-2.839078659485427,-0.809380821082754,0.5169465157483709,-1.1511537365528692,-0.2215132629521239,0.9567031863856584,-0.02230028371805305,2.2172124950818173
0.23878915902651351,-0.3492577043184288,-0.3216350512173826,0.38193545223155334,-0.3486521344078592,0.43004164719106963,2.076747983560841,1.0302834540318422,3.6437591813971113
1.0743180127155614,-0.7567639770159263,-2.1899217049785533,0.9583858198420424,0.23278674294016363,0.0516609768510798,1.1945922205137307,0.22907468820570256,3.4983298482384018
1.9920944074974534,1.6056779580824545,-0.14166263187224326,1.3755969643042085,-0.10737861841004537,-0.40409531183239966,0.3023229003482749,2.035531456719595,3.6459223909815996
0.3639706308527381,-1.0797363212758484,-2.0217986399619474,-0.5984375805810469,-1.3585740152574743,-0.9665878909853152,-0.10128071870153288,-0.0681234251679531,1.4272192547513596
-0.7825913625481332,-0.9823242722767759,1.6053559623618066,-1.5714199983383004,0.5009173290858575,-0.9323712431819872,1.22393634423789,-2.28577724449495,2.3368648529986578
0.6565536086338297,0.23225369716100355,0.29307247329868125,1.8657745111447566,-0.6800247215784908,0.4738329209117875,-0.7143514180263678,-1.1913034972026486,3.2142824426676855
0.9427885141400756,-0.5327254982169035,0.8396638644311888,-0.9006713825124801,0.3243402100148682,-0.9642000714232447,-1.357517539841935,1.0800560591393102,1.6358770786201273
1.798725018351312,-0.1373109657888796,0.9577916144729056,0.30767665340111383,-0.6076463453734726,-1.0955193888455623,0.20760335140062577,-0.8807540896027302,2.4101710898966395
1.5375513190343435,-0.38113769667341885,0.6037132405441962,-1.208858864620722,0.9886087934991747,-0.5659371308924055,1.401500346552158,-0.07567107265706344,2.955030959549917
2.270692857804396,0.7708651938869668,-1.4785862457798415,0.3384964074944141,0.23561455810856594,-0.4152879139008013,1.143754043206929,0.6327818661062848,3.4375736330244075
-0.31469082878809246,0.8091127907313788,-0.8497209214776963,0.5306831230100478,-1.2077593925433523,-0.663436157219488,-0.48298392607284074,0.03757485933586561,2.3587070109305683
-1.7684154256380724,-0.7100154428915523,0.12999822580159529,0.42124737869098017,-0.7598021319877752,0.8468399454691652,-1.0630362728537182,0.5343472134537843,2.4726914125705086
0.08409438825019651,0.11112937529651211,1.3181970672340253,-0.4432634648179029,1.3920387515870913,-0.28857511715410117,-1.3581749214775936,-0.11455942747251965,2.5639929311901404
0.9778722722111376,-0.9414031690020248,1.1209670236143776,0.9758233372885634,0.4115657191642819,0.008857703668895378,0.8055747028061735,-1.4155240669137066,3.4666208394737428
-0.8687675445729097,0.09293565268297786,-0.5499248324643456,0.28727251402742693,-0.06477225979787651,0.9437155057560443,-0.5100639500960824,-0.5982793341978477,3.036121617597849
-1.177761457991358,0.10353815394917538,1.431152117761741,-0.8800119816907639,1.5941779562040121,0.2691809202551599,-0.26003625018044474,-0.21578712632821961,2.9317628190132106
0.33899351380941967,-1.0588001482478198,-0.7155129854852287,-0.6610250546274942,-0.8246120097650219,-0.5149387064332724,1.1214992118499283,-0.45669761502324635,2.186956304669307
-0.4787486216634773,-0.5160447282173739,0.09612077694098337,-0.4344962274323156,0.9382838059759977,-0.30917212346863937,-0.4622752887050425,0.22213377163371284,2.587115531841392
0.5168252658244509,-0.8034342741712571,0.5712242102362395,0.47001366124666144,-0.3171028325739657,0.10338199621209512,1.3906435959499572,-0.9864404990992466,3.3286766936120893
0.271495310825648,-1.1482632887526183,0.8187776437548606,-1.1225448062444139,0.8113965544915921,-0.9175028210142636,1.5379319184125528,1.0176614668435024,2.7924442963812517
-1.5678594253654559,0.3131321400131553,0.6870657958589163,-1.1115802495135512,1.3764964500195378,-0.035825578706462934,1.466540859278603,-0.531454551359215,3.468144475573561
1.6246784584695606,1.3748764191481848,-0.6459641791245353,-0.4827435221820324,-0.18289644110484016,-0.9533286082587124,-0.7991920066502536,0.12267031599479553,2.198289903809676
0.681359510442948,-0.23052462518025083,1.1797252083607102,-0.5312142946075985,-0.7179188907476018,0.48387665118803974,0.1941076309533577,-1.1022921498364233,2.5839941952830907
-0.47209057769712737,0.5008444749444569,-1.801057734152739,-0.7877837519082389,0.6380511014407572,-0.620847598251116,-0.5426737997340217,-0.1681438185847896,2.2759324059382515
-0.7928728322623442,-1.0592135218889516,-0.06267909727317188,-0.9857260463355437,-0.5138669173366935,0.5040465155178444,0.9551423205012383,-0.5302576183724408,2.5309707686840492
0.3911278769327262,0.19337945192415906,-1.3481770454274902,1.9002684243109647,-0.6681430483277668,1.0230565552522393,0.015682236471624342,1.6435415091205292,3.6178650705514777
0.18335991977915564,0.7591551603026468,-0.5765104007267194,-0.5462444482524828,0.541462728204788,0.3918040054025465,-2.59104229214491,-1.4789115687741288,2.0834863353384483
0.04693490206036963,-0.2841550979287972,1.1947628618769377,-1.372859451481064,-0.9858038086678267,0.35147990035220167,0.8946471875738723,-1.9782252493748103,2.4339382265978022
0.5079913269125437,-0.1524698363805439,0.7081086766885905,-0.7859894605079495,0.1335409047822823,-1.331232953557778,0.9567023167945841,-1.8362053731032966,2.491647968820356
-0.645572072035395,-0.40179502694163366,0.6813623265753054,0.7547332980678092,1.6994359830087096,0.1994239859867671,-1.1536922813398585,0.4730382821602152,3.1389634971408604
-0.9648933001863843,-0.5789842199399048,1.056101251669989,0.9140771642240336,-2.044629003801268,-0.9870461789363153,0.7882916566360036,1.6158724901223136,2.3426362929280495
1.0067300712270648,-0.35077820560155415,-0.22771961483575284,-1.3990784281844755,-2.2660520941492828,-1.5202867922406096,0.7154930967694852,0.45096263477647686,1.1857525833497276
-0.03916211544275943,2.3654077719999735,-1.4387201010568695,-2.3784316598733284,1.0895365830766406,0.19265153264802468,-0.2252626424913536,0.36539424192514075,2.6501987295857146
0.40582408667381425,-1.722256933957519,-0.7204550706750589,0.410383276786892,0.4458388752292466,1.2146667801329025,0.41135763115143903,-0.14486675514609437,3.247197736581121
0.3929135105482163,0.6230873478890951,0.23985774584929662,-0.9984408528767182,1.6533096371785305,1.6232566905280539,0.48630999335022157,1.9913704184169045,3.755603427900034
2.098221474546747,-0.3559740843858328,0.029190503935567446,-1.2325403112202802,0.452067838259671,-0.684491730612797,0.6979740301300975,0.4573242810867655,2.4351959979415696
-0.19365945927971812,-0.4532280493272752,0.6963874474567153,0.08840688629184736,-0.17018462252492844,1.4775300810552618,0.9553052085705107,-1.141689114133505,3.545099656526541
-1.7397137787780996,1.1727290192593647,0.5436001545944323,0.7716987106483447,-0.025554070991445278,-2.8485426206300755,-0.37061433208610595,1.1487657003721035,2.303984691055535
-0.15567723539207948,-0.7968952554704768,0.57707212718054,0.37114587337130883,-2.4716445001272893,-0.6039851867158206,-0.2030453860429927,0.08658978747289992,1.7640788920786545
1.3252760904370375,0.9282456913443246,-0.49653173548196905,0.2678436378663333,0.6445184916452914,-0.8235349706258495,-1.1534924259847839,-0.5182526388612024,2.572078086891283
1.4617170162571183,-0.3755089806394995,-0.6560972360056414,-0.49731714635766955,0.6190831693880101,0.2940820387932141,1.2692556718986205,0.16333468067753845,3.243030014349839
-0.09888965319114267,-2.152890592952483,0.3885786045309641,-0.006070911539893324,-1.1033666061738736,0.8384907744516419,2.4929995174327906,0.08182935854756501,3.2482845664507374
0.7034279167873088,0.12626773623406817,-0.9846547848472624,-0.4235985817281771,-1.055089368176695,-1.3656174041901494,-0.7925234471152126,-0.9741218462163683,1.460854341358856
1.1969109487613523,0.17615045188769213,-1.2498203395893641,0.033719054901053244,-0.8147560028235481,0.26859358104429787,-0.2652375404702022,-1.1148221873524142,2.5192081291955324
-0.9367952349593828,-0.9391555697706817,-0.38438737659292116,1.605619832565118,0.23622364626423303,-2.0807405253909783,-0.205766993677172,1.2058184207160432,2.4202879880952892
0.17852916972047786,-1.3048168904329494,0.44166256418606065,-0.8374057253154913,-0.37563366071734017,-2.106889114626081,-1.4337300248102285,-1.4239581121976068,0.9198814578116243
-0.5849076534177698,0.30698107268623775,1.813407698515423,0.2783486346446696,-0.009288561567815747,-0.5092133625991345,-0.3428788615575641,-0.8463597198869729,2.736312347393778
-0.8455521763546138,-0.3806946237950925,-0.37598357935186616,-0.4894142344944204,2.1563496317292987,-2.7452995536723845,-0.5610891309809973,0.4050353858557128,2.0084058827930162
-0.041292687007282836,-1.9550487703182828,-0.3689394390314622,-0.917976104610736,1.040430892644839,1.7311696317672995,0.2138087939410634,-0.635409880228737,2.9611985712254736
0.12617790366196718,0.5697603571986469,0.19548173155329082,0.4359753895000459,0.4914294527201998,-2.5322460852196853,-0.09884520123930605,0.6820694900626313,2.395412223819644
-2.7075438553811773,1.5361567728549452,-0.11131884879780068,0.8331577666294346,-1.2692911052431042,-0.6302492950044363,0.2990857340211059,0.8642483846986365,3.066974146475103
-0.09107586035302723,-1.9759632998916197,-0.5703140677864661,0.03390272368233751,-0.38245239766929023,-1.1904077356744902,-1.1791082143628482,0.9259751007146168,1.3439623546707127
-0.6368823889389575,-0.23320849820639397,-0.45121882694387655,0.29282884358668343,0.4131474759526224,-1.8804355440630813,-0.13080059372695568,-1.5693895953746837,2.381559216005468
-0.35929209078705954,-0.5308687729203206,-0.48943944251822213,0.6818914896263114,2.5269324258736217,1.8467073257360336,1.044160877069072,0.5839281853259639,4.7452451041179255
-1.7059590948907353,1.164990882563923,0.625318334021503,1.3523625459261506,0.23386510100924698,-2.3648553727915123,-0.1692744383326247,2.052073311421935,2.8855592264787417
1.3534536476212031,-1.7776809623702012,0.7147456498889451,0.707457710864381,0.7851850823103762,0.7769316923548287,-0.23372405785172545,1.6079150611191575,3.0830942411047726
1.187713384138455,-0.27583995989645654,-1.1586032636594852,-0.5140888043678978,0.06323214651310118,0.8976557716497436,-1.8156489758788175,1.2561974394136823,2.0413960962509967
-0.23058639852361285,1.7221550978081948,-0.7670674554003005,-0.4479613384499751,-0.4338734629791891,-1.2148061358886433,-0.6038382974931866,-2.208280776228252,2.2229356429091043
-1.0800026083821321,-0.048829835933703165,0.23545579511111434,-0.8076505577467649,-0.3754074464839619,-0.39156997735603927,-3.688365291428444,1.50506203860833,0.7411189925841489
-0.9134585796322228,1.4929526227538277,-0.3910246668655764,-0.6590238266596705,0.533695248006193,1.3286464115446437,1.4794817618608729,0.8174671266983724,3.97986910912235
2.5393816227828614,0.20165290512925463,-1.0299722747769358,-1.0736886589177526,0.40023585552677515,0.08108254290082371,0.04607922163315134,-0.4806479414882414,2.6309198673287817
-0.3150867311941086,-0.15171443357722914,0.5333592447054494,1.218194711754256,1.2753907379990148,1.057368305378225,0.8394685045184047,0.8721970000729778,4.359344855584492
-1.5702247198904564,1.8124485579969287,0.7077519354554754,0.632407739055521,-0.6269670577877674,0.9725544496267299,-0.5624667758942676,0.6218099622171964,3.4296422979501933
-0.3001287868282,0.3927683630511244,-1.087748675353668,-1.1185234842116323,1.6833145759275296,0.6428554939629476,-0.12389236323520093,-1.3512904026984345,2.971671405036805
0.1480894197982762,-1.8579014513982872,0.6032475005713938,0.6386601686431024,0.22899639245934025,1.0581183250871502,0.29815846599052565,0.3676198402097109,3.1108954439428786
0.6951652483301405,-0.906902874722061,-2.350455852624361,-0.8639798490760783,-0.9489528277686782,-0.12653257974705998,1.67286820189853,-0.9103243419282839,2.4473077385520847
-0.2711236010425688,-0.82688035403986,-0.22647889190152676,0.9135846262332494,-0.877982586756561,-0.8031789506803448,0.3673655068161781,1.4926885689595217,2.600097260105467
1.3393265894799997,0.2875639051673281,-1.1640506324058255,-0.8596135138784541,-0.3672039342117483,-0.8905688105910143,-0.35799043441333583,-2.1098382406256415,1.9642986293885452
0.6297395144087381,-0.9869427365015568,-2.2557913310947475,0.17394720841281136,0.016374241931293703,-0.6181750421001689,0.43100969213007667,-1.6191730565158649,2.472734193032727
0.3831681897589003,0.5384349572164524,0.7157342411708404,2.185094895036112,0.7310006267854814,-0.6867153430032953,2.394361900582451,1.6238849928111523,4.74289574927883
0.24395319790850026,1.5490201514951873,-1.2391070756539009,0.16476084123651674,0.1018562952619867,0.05088770185601806,-1.46752526575244,0.1733416643704082,2.7008037394639564
-0.1627929060722942,1.6426729532559634,-0.9006207346478687,-0.3286184757489846,-1.1894118928673278,0.6031874310823431,0.638391925608383,-0.5441140021141926,3.0786207441141205
1.3448540311806945,1.030919338366907,-0.2880627983512786,-0.11356256479045149,-0.3128364730515222,-0.05585218265281086,0.43102295801089313,-0.3773865174622099,3.0187249324155205
-1.2107426266291645,-0.1471927507680115,-0.19906255375986986,0.33276047863701036,-0.9880028180029409,0.5598284488280599,0.184827033621654,0.23764265629995912,2.873438890136016
0.6994642468957021,0.5740419308840301,-0.10986412310193568,-0.7721923878043793,-0.6301428301423468,1.6656032136865273,-0.1840868670159194,-0.3755000400755709,2.8867101384804643
-0.42483134752563845,0.1165785120124638,1.0715159355810386,-1.9655558914765052,-0.3177608940173958,-0.5871152706201476,-1.506534030190399,-1.6339229590592872,1.199449496703411
-2.832325924984141,0.8377642215465891,-0.6792306531929551,0.5232231857370332,0.386382653848061,-1.2203206899439758,-2.914255989816941,-2.0173387981224113,1.8628318027931607
-1.5947030672667954,-1.1196174332890112,0.14088624691120394,0.32316771418478146,-0.4888494217862741,-0.14760258629866868,-1.7684393655628516,-0.46603650186824225,1.7802147627596248
-0.8057996548842047,0.9386400226789446,-0.17611243395986265,-0.1309258051261265,1.447796418457866,1.1282397832688376,0.08298741881250997,-0.8758424064951101,3.7746870377884196
-0.5293321124483709,0.20438903160297678,-1.2021495260760888,0.31745326125017514,-0.5555467794868666,-0.33286040438251124,-0.39568071175626385,-0.09338685889994829,2.4143948059175147
-0.6298845523638104,-0.031203488939083975,0.018016872044446585,-1.3668583632808264,-0.863493604964934,0.5925672738473307,0.47263034584340563,-2.704391631602775,2.403723599044455
-0.9948563524675411,0.8917005810695752,-0.6723935843265022,-1.5669593711673528,0.020121129580859987,0.4070903833988318,0.33649978882090087,1.9530596955398964,2.7192603661415577
0.8202983745089647,-0.8024300398648369,0.5789286485712348,1.5404412397766734,0.019599616577628293,1.255349780288475,0.4600423238604662,-0.6856749175901302,3.846816871256566
-1.1863364271098544,0.2412402484067293,0.08450514569286258,0.9235086160473687,-0.0626482221218215,-1.0506233218278012,0.7979945496122363,0.868772500590771,3.1079559968511745
-1.6571435851323046,0.13259767202610107,-1.6032168466140961,0.29593324034609525,0.20786050106708062,0.135428834719957,-1.814883829481406,-0.42581799836655126,2.150565673867513
0.1292211819752275,1.496044311489183,0.6543656563540577,0.2799686263198203,-1.7787202489042786,-1.1254890472983765,-0.05558467091045507,2.4457519796168263,2.371491707129461
-0.336254738681072,0.15697296096843422,-0.5865312695639355,0.714609790636618,0.6102161695892225,-2.049941278577478,0.224216404290793,1.1590740649558977,2.633973472434673
0.8918405795948128,1.6666632592275232,-0.6783346293354934,1.524517181115903,-0.22535148504419977,-0.44494639089525284,-0.6141435312471847,1.6010743061643926,3.2126956715620087
-1.465673857342095,1.4120268785432495,-0.6281437391691783,0.3383574419359596,0.5793467597567757,-0.9925780067288229,0.09893378702888371,0.02041716721291813,3.0811368659671405
0.4430021304473752,-0.4114931445621802,-0.08923415422144892,-1.7312013034449254,0.07268052432934134,1.494938227453236,-0.03757064497948127,0.041325632270618466,2.490907933222179
-0.531411401138425,0.9944145282075845,1.2205506039312326,0.24409844350238658,0.5704860860796908,0.2739110868471789,2.0135542946486997,-1.5231724641738478,4.176481918882333
1.3183023248526693,-0.6121669171548207,0.4912076654119963,-0.13939720066323416,-0.4835614838465371,0.7396531517246714,-0.35802937974698623,-1.9093560875072928,2.463188696040554
-0.543424771133765,-0.024125087110003277,0.19808476076785494,-0.5736620068802363,0.013929291912946203,-0.5468589412403921,-0.14436041192394247,-0.03275327021599839,2.324570510483203
-0.8203284611324674,-0.7656111570301878,0.7341063358072487,0.5647762643141505,-0.4238335382064832,0.6844861335529961,-1.5377078085300024,-0.8796436755512407,2.366203116852262
-0.29779615622396016,-0.06374528550396617,-0.8774840221556317,-0.22001802765967404,2.7107942990405327,-0.12740687238995974,-1.407087194784017,0.10264552853966442,2.839966774307533
-1.5594357791262254,1.2368324661272665,-0.5403763389870544,-0.3984452749893668,-3.8366555484593694,-0.4466430468146064,-0.8014839218310068,0.6122698101053926,1.255160831207092
-0.30704834092510147,1.0331898643631479,-0.6514425498636812,-0.4245981660221425,-1.0010095444828142,0.397637501776279,-1.866700586803942,-0.4627366479963379,1.97244801800707
1.378142680497613,-1.2295262512173861,0.10722928841915275,-0.3410929321416082,-1.2628647537281779,1.0219631550600035,-0.49987103450503223,0.7331793174225577,2.117813883143654
0.980004236133894,1.0734127024104452,0.4986899121355445,-0.1554224325277597,0.7654021560133495,-1.1557075749169152,-1.94249769096177,-0.20260577291807386,2.0800105604290735
0.0798014840587331,-0.6981996746110497,1.6786746733725662,1.3111674978026244,0.6336610247740587,-0.2243189708781048,-1.911640550651757,0.8595848723435562,2.5898241904315826
-0.7322995497370884,0.7401256641052443,-0.1735444175613875,-0.6257730437317763,-0.38163109541321133,0.22992434541793752,0.4158027257204452,0.7777976308777149,2.828305784260199
-0.3617238360933866,-0.270267604363889,0.2177182010871666,0.7034921482250248,0.6419471294437011,-0.07782143613647309,-0.8246503402906875,-0.27595145169613816,2.780744918820172
1.202249003361171,0.8865794927576496,-1.4512262989011584,1.21317918839159,0.2472714521087559,0.5328917202270399,-0.9242684025950716,-0.6172857068788872,3.290627195910896
-0.4629395120252583,-0.7097889922335351,0.9788895585567792,1.6087808557343735,-0.6143231440962944,0.8282296901846228,-1.3717431292635056,1.090861670603698,2.788817176167284
1.472670675750982,0.9854496856152184,0.8691545924968965,-0.8892408282283243,1.5781180575621845,0.9553005582377528,-0.4555395260238707,0.8760467925297942,3.3766269800353097
0.5991033318635947,0.9959736788464457,-0.6982618487513923,-0.3807634038618044,-1.181981996068219,-1.269465266012813,0.12417568474461345,-0.1683004231716427,2.0639531628753387
-0.42390107233259605,0.22525668198359955,0.629360633428892,0.6792938199823493,-1.2039136489663802,-0.7101366068373821,-0.2990690852300549,-2.1146935990737354,2.4331477025160684
-0.5703513664136806,-0.6085897232397004,-0.5289777080640152,1.223083067095325,-0.8245141615276735,-0.25885440036983165,-1.0565576427602528,0.35250496835687956,2.4368922108359086
-1.7485319732381808,-0.2500465145989528,0.28869362927985703,-0.1343087414705478,1.3924653000643288,0.8108082731597821,0.2603218387712207,0.793488720552213,3.4398301735292702
0.4449683153761758,-0.21224430983993056,0.03277363755578143,-0.9345938948984711,1.3914579669559421,0.07758538948639096,0.021222650834258405,1.3967601773984912,2.910096040973316
0.2869558543017087,0.9040175547613144,-0.29748220087385013,0.3207857259326839,0.2243396567780826,0.19405194360587402,1.3119837385739466,-1.270061088712032,3.7274367335140837
-0.3610092232525697,-0.23823367505561752,-0.41051848272973,1.177184963184339,0.29523257504060313,0.13674664739923068,1.8188985322003248,-2.304211935943967,4.006214220905191
-0.6582484123338483,-0.38852077518300926,0.19042388992505774,-0.5098066931908826,-1.8697416996954206,0.03444101170584135,0.44921872128503426,-2.4883273534129895,2.058114258450166
-0.3409078773460798,1.6284685547723217,-0.28438464960650933,0.6789312900592783,-0.9647054257507148,-0.13699548944245826,1.5905820726178503,-0.5193963718261266,3.7483175200642416
1.3149144535840473,-1.830632896856457,0.5112025995249807,-0.13744851462769186,-0.6540756831274238,0.9528745472029388,1.3736585451629577,1.6122782579886454,2.9189672296771767
1.0697714549838502,1.7031726099180378,-1.6380290574360168,-0.6220348055543814,0.9955815140020298,0.5827375831738644,-1.7863754653546866,0.4968735905075971,2.601461747312264
1.3592975993648058,0.6488819259038391,-0.5844009765960311,1.9836336524360194,-0.08308932774318312,0.01188043451779194,2.4523699128687237,0.3865862299051922,4.562858495422656
-0.483933444951233,2.7922088679099613,0.09116814666643917,-1.7806256729074892,1.7649138055507714,1.5027343263055881,0.7882041407971867,0.7762285047241061,4.164456338305736
0.34758170536167105,-1.7101683926566256,-1.348185422105713,0.17086543812794186,0.3078017688920592,-0.18398333635267913,0.743264094022715,0.01843393306539316,2.7397931797586264
-1.0763811874020583,-0.7487997960200538,0.4168015744831139,-0.023050556085466193,-0.061097508005868134,1.2785751679393744,1.1671207880032974,1.0829999385168685,3.4965102644219446
0.7123221595801621,1.3305749040390402,-1.1967886464263116,0.8929538701087693,-0.7801991291174627,1.8296202017160872,0.8936976893891109,-0.40968659262949736,4.202005136604425
0.2321945046423276,-1.7047859057901145,-0.24795420732788961,-0.5159809893490795,-0.4290372480926655,0.41687306259004037,-0.4799681461487265,0.6586319527905097,1.9950146408203833
-1.828405880841963,0.7043362098540789,1.85204004481367,-1.0976109822757267,0.9653266671611266,-0.36162810937254564,-0.4177830125136188,1.4355709931636234,2.576479808851536
-0.3091164642025014,-0.3164084496948019,1.2130976999791834,2.319329539981694,-1.092312764672579,0.39331783939437187,0.14171691363990474,0.1920491164900316,3.5101185894497196
0.26355081195478497,0.35947579754712555,2.3490757867007575,-0.4166253056154625,-0.47875857152168855,-0.06312301311124825,-0.7160434362758403,0.3957988487097471,2.2856008952642437
-0.8300704951292369,0.02310434600073103,-0.9779388355526387,-1.9790186934897123,0.8687983383055493,2.0268171160423925,-0.6124228909008682,0.8627545919526867,2.782080146833372
-0.056945623721067457,0.39913611435207086,-0.037634702424848364,0.11422764866203965,-0.5449190868089497,0.1503017614618776,1.1033018820165215,-0.36361221221385587,3.2008425398313944
1.9723444790822,-0.5054897554445111,0.20885354253433172,-0.39343789627455045,-1.2858640172797149,-1.909197458977243,0.05821272708505647,0.4704829961291065,1.4505349075014768
0.35561334878566,-0.19090379172729868,0.7197579421481819,-0.9564363768180087,1.804348109786743,0.47240627788037737,-1.2932729578711637,1.484116028535965,2.5847046444467145
-1.0243876413342898,-0.7076694656187807,0.44381942814622843,-0.926930471578083,1.2669111491866227,-0.05952535606180008,0.7746340534293368,-3.2412673400690726,2.9211126798757627
0.8723153800284503,-1.2578681559088878,0.7313802525749924,-0.1421465369405461,1.1927351654164144,0.33868731792169,0.5904220612514635,1.0294574815983573,3.111280977302666
0.7906255991627686,1.321304032273012,1.4196030045136372,-1.8665399513606162,-0.649373038321426,1.0075136898369221,-0.6004235657387051,-0.684629825760004,2.356015119489146
-1.1215301474250274,-0.18667896231344497,0.7290636450023644,0.34166023195262635,1.1218615047942522,-0.27131497806829746,0.35116546762708406,-1.2165808041357096,3.287239237868948
-0.14705738150213865,0.6283455092642799,-0.012246772846914623,0.07580455819372633,0.6241198170521551,-0.6771617115121117,-0.8972543714858315,0.9751197334177512,2.562554844989289
0.6523303381766798,-0.05739536507403601,-1.395448504755072,-0.262746747686504,0.5070202721353568,-1.5958939685741134,-0.7079109406740753,-0.7390286580232329,2.0280441468749357
0.7826298263165181,0.796701927070742,0.015182942540433121,0.6455877121741934,1.029413100955326,0.019381237698025213,-0.9748065759228419,-2.3203155982304233,3.185115372808095
1.4484992298929262,1.2358116200069387,-0.15589817793666752,0.1600182258527877,-1.1165244399486591,0.501782736167545,-0.5482872964906009,1.1173988159024608,2.6776149084103213
0.32910677871012955,-0.18150316213566714,-2.1770650464428547,1.4288577078135674,-0.9951484818533795,-1.4741321320421057,0.17847666388538974,-0.5859276733177553,2.5301520488467566
0.4664445968402613,0.08387250176093364,-1.0804073292785017,-0.42369071691067595,-1.2931222504049704,-0.48915617518421617,-1.1774165052492886,-0.5379785288219551,1.643706206479317
0.7916626939629359,0.5951570254369136,-0.8182206832334725,-1.006017381499702,0.09699596499271819,-1.2141886127877322,2.0923872756854602,1.1581108735000678,2.971835128759384
-0.9969316264021268,0.7267940464018038,-0.6281493997556425,-0.2570524088130647,0.24511428437261784,0.2775525134935317,1.2863821369955335,-0.9331060771871093,3.455885820154945
-0.31178557325602474,-1.574341717731963,0.4076897368371771,-2.0591604836923203,1.1494873640103684,0.7985013379072202,0.5809995399616921,0.8766058798421794,2.543633727321345
0.5239605120767348,-0.16825913448754154,0.06837156596765875,0.33164766712576277,-1.2681368049753126,-1.0471575686902646,-1.7464667255790336,1.7110288091907877,1.3486960060841713
0.7321512260547355,0.3323723332239848,-1.7555055887046276,-0.8857137997996899,-0.7865720915578501,-0.6248346184344824,0.4539052294413472,-1.101286489839828,2.2255088472096176
0.1979107834626478,-0.535235211560568,1.3173940656343257,2.0752608726252655,1.0495527153193351,-0.6891878180895679,0.19759960469239965,1.7359638031652493,3.7637430336170596
0.6872384503952884,-0.9487486952680001,1.061256258512118,1.7531948020655854,1.3140749815246042,-0.36515261319821335,-0.4333895666861532,-0.8404929855066914,3.3881780809170428
0.6802203604766911,-1.6728939013115742,0.4042128652773321,0.2270344788648889,-0.24907184465304072,-0.3240681752089702,0.7158727446909595,0.5914421517518549,2.6070767762672546
-0.22153659758373817,0.014149264965758293,-0.5964114079688796,0.8089192693927194,1.4521176991825604,-0.5844552918504382,-0.2991817724274345,-0.7493576894227776,3.239104286432228
-0.497961846817842,-1.746895691345555,-0.5387608373460957,0.25617060569427813,0.4755884359285824,1.193311005927126,-0.2549469704035893,-0.7717408145967823,3.0253147232099042
0.8264223241917663,-0.05123583553219154,0.6255845936750005,-0.3072462256617315,0.30703923725182186,1.3690945827628513,-0.22327158843330958,-0.09872089445567296,3.026147391433952
1.1288474875493895,0.47962531955157295,-0.4323011858095411,-0.9273730056959336,0.23782954075833587,1.2884336225033886,0.23173094203039254,-0.6342747168173137,3.165865543186425
-0.07749429989298792,0.2320946379285372,0.49888319476821275,0.19507692542260213,1.1166812750675223,0.5374787046064285,-0.34214865112723886,-0.5784597288763313,3.2711854966635685
-1.295078772063616,-0.42688106994742003,-1.0121043752601675,0.8231705839619146,-0.15800789857898942,0.07331796718840389,-1.6548566718657693,-1.2899608997410539,2.3445308919197867
0.10575379127148042,0.2700573583914221,-1.9122549754197768,-1.3683150388328105,-1.8206033005485172,1.987275999230808,-0.06863404608546861,0.9113627221747217,2.281517979275704
-1.0500547898231862,-0.2544760766453415,-0.4580251830145565,-1.0633544998303186,1.2371808002890092,1.021624764399948,0.4753349254274913,-1.0559898119268434,3.145652185719489
-0.4713157211511179,-0.941022700666379,0.24608361531640882,1.481960768436536,-0.3152966552861244,-0.28321803894523256,-0.8022800271395435,-0.5655763678739903,2.661347231224655
-1.4338058239284144,-0.6646510975020625,-0.9028089269627998,0.11683017417218379,-1.590141830680298,-1.2855910007560276,0.8092646982419858,0.8800659629573423,2.0975875197336262
-0.9287920814524587,-0.5070086592700558,-0.5139006266488432,1.784775039185095,0.29096473013744295,0.013450364619293007,-1.198951397993876,-0.22485305579485193,2.9408506874383598
0.11179915820338826,0.3569727592669261,0.08127842205619876,2.3883719928704386,0.4096361186839937,1.184256645196173,-0.037893081716830875,0.7228268949855121,4.352839990125344
0.46217266608194285,1.5334337012963255,-1.423957152450145,-0.42924442029866183,-2.211861911329507,0.5885532697707198,-0.2666523292344148,-1.5981243518837476,2.428220351300461
-0.03564148229748357,-0.5290526773462948,0.7942646796218271,0.2935579321666293,-1.5625458568865427,-1.356581804623405,-1.2542894231692494,0.46642998243352635,1.501022911463014
-0.1265188969539503,0.06450597286257172,0.9065441571099638,2.0578111770977623,0.3576613666310894,-1.4384111667945592,0.07225204823791581,-0.5151708990920177,3.2909864399283997
0.642301235011176,-0.9392415406820068,1.3325514676651278,-0.6049067639281748,-0.2165231975361736,0.4977883094177774,0.9289320135322151,0.5374120028203807,2.793097235586776
0.8861911885847956,-0.5898947564628909,-0.13216935564437185,-1.500221861446936,0.5954908976392573,-0.7788370428204348,0.07227896538428889,1.3510728924131392,1.9626818548629725
0.31318447386498,-0.3748220566218061,-1.0385438208439723,-1.2374266382225725,-2.9069882193216414,0.10940847183297006,-1.6312758154609455,1.3286408282482312,0.6374240266986013
-1.809267714588258,-1.9465252863588642,-1.1179276080367397,-0.9282199673480178,0.22392687394660638,1.2434282781029249,1.5391972001749075,0.35533819559013685,3.0133670730827973
0.23321613126350166,0.44194064956940904,-1.090399077442846,-0.09858813228426173,0.16865467196672768,0.018849622944847662,1.41093237974627,0.7082144232565571,3.5453510554059284
-1.2291835978004162,1.719040612841821,-0.8963326585920618,0.7918593103880676,-1.0701915628943317,-0.5706404302001128,0.21930233720043607,0.8524686434329506,3.016466720620426
0.5925303073177614,-0.1286594463520559,1.4069347458917507,0.9552692372072055,0.5773635251066616,-0.038742894989543024,-0.4841184945848177,-0.6083507646793376,3.140599898426403
0.05921843401448826,0.6962063648134184,1.8489560949453452,-0.26888869055483056,-0.23093453020867796,-1.1065259087416703,1.1265650295477574,2.5733598032498604,2.831206515314177
-2.153390113603715,0.015579047581467534,-1.0962750868952018,1.5945050632249722,-0.1730718242838696,-0.8469613483183278,-1.4400508825942944,-0.9913923494563072,2.519766965485804
0.3918287077161016,0.10649398029009184,-0.8432983112849525,0.19767556695424515,1.143566044928613,-2.521604801462043,0.7020303236673265,0.4283529137714487,2.454488272812668
-0.09671311187039239,0.6060099513456396,-1.280429352496283,-2.081929407883722,-1.5566291735239037,1.6964563682900382,1.7547941819843647,0.2110174672026184,2.848403886171778
1.8167556295751046,0.2006986942888783,0.2572534211115017,-0.7494159869569733,1.1062315588599687,0.33776609905460137,-0.3444772087524527,-0.5450872299955903,2.8484166140259313
-0.8058700664961888,0.7796605322693398,1.3103087461196083,-0.5621680265783021,-0.30803428418574125,-0.20922187374452778,1.395683810789956,-1.6834381922209503,3.1269704298575705
-0.13014305436768459,0.8135096360006385,1.305478807154329,0.6819529712949639,0.8254163489880298,-0.31026675659345604,0.02100384163275905,0.3241663524884421,3.432458518878473
-1.1310672355025877,-0.6308464029471887,0.43235271420033994,-2.0323537642983847,0.2573731064173494,-1.321555786511051,-0.7171819007224715,0.021092747850587245,1.2126086910617881
-0.36283856043965906,0.889630795623437,0.08228398927542419,-0.5172884501003722,0.26705026586925884,1.40934744018558,1.0654803750653512,2.2988981236192503,3.7045855786024866
-0.4929182749492523,-0.8509750806815649,0.8639235499624459,-0.1877270235798839,0.24207067028796736,0.8406067127833832,0.7691357793100331,-0.8252919608308644,3.232489017067904
-0.46126705049830724,-0.12826348048383082,-1.3833407769716104,0.7841464163534985,-1.8996702808588812,-0.8980272263244584,0.9017286971402739,-0.7660452024003999,2.4886208172593824
-1.1119670257741636,-0.2346205699574138,0.03823799496002834,-0.29967664800678706,0.8584511166566653,-0.05020461704174478,-1.4485914146335441,2.620793091029975,2.274698253908704
-1.3992282592246312,-0.5837221335626013,-1.0857477107815494,-0.6401544568346118,1.1765332537877653,1.4837439102037069,0.029796165121424436,-0.7348108975341908,3.1653254822096337
-0.8927733072761507,1.3558053394315013,-0.03494150045863278,0.5586952829218191,-0.3894035615253766,-0.40463852004094636,-0.9073265593722656,-1.2243872733579544,2.6571171766107566
-0.4100294115389108,-1.326262161949157,0.5574085568511856,0.6823387820596591,0.05389734703320638,0.9465770035733866,0.6322163140318503,0.6040516449216232,3.4633452865197776
-0.21966945235096014,-0.20487666386471723,0.03139586553277644,-0.020560557350507186,0.7436517755401733,0.28918367311872534,1.6075783063995104,-1.1789234912983253,3.74511053624369
-0.026513875449216878,0.4040508568145384,1.8861859012105302,0.25755039072276437,-0.16128571166600914,-0.07444591576616721,0.17457781283183896,-1.9187712152990415,3.0157437881988205
-1.3996815047326863,1.1273500893554853,-1.1298498572185598,1.1910906831461916,0.9970593564536414,-0.14685352125530088,-0.8238368696411541,-2.219777947451851,3.3617957453579255
1.489599409447649,0.06502463118878012,0.813280406064593,-1.743672602396536,0.13965167421589658,0.15682301609819319,-0.8438538774248993,0.28123049221860413,1.8926464400415668
-0.2631612720598266,1.2090101989009971,-1.7798751082081674,2.505448905356894,0.5354587474096335,-0.4516410891769469,1.0641707023410438,1.8951486121089698,4.409011687050327
0.5030903686237468,0.9695690257529068,0.32685540061043733,-0.19569853114690144,0.7899197221808523,1.0600897399086655,-1.3892987302109903,-0.05152292852464606,3.0503241446774276
-0.5260348426675804,0.04977368718096008,0.007063158628176452,0.6988284202025348,0.5006657213812097,0.4209729443893898,-0.6603211394734471,0.49201884799279927,3.1966765958954726
1.0251091525817735,0.5032520647495048,-2.0634031524794545,0.9411818664199697,-1.6610834155671725,0.19189773587303607,-0.3173504922425348,1.9483426447898131,2.5224963444624753
-0.041337204809170254,-0.07492655611844788,-0.3686193657856996,1.1196877785533812,-0.34815739681731317,0.28305316225865373,0.8070464166066873,-0.33931118713815905,3.525874613296959
1.9351540400602292,-1.5975991695954321,-0.3270173176097711,0.4961991873633163,-0.9245641143780999,-0.535316712567659,-0.21345677935043825,0.5114995753618614,2.0357146725371287
-0.16212397547985843,0.1755362295785979,-1.8437935834807457,-0.06407776414871663,0.30170000890173554,0.5362909095171899,-0.8903178480198718,-2.1961278210999464,2.586519810895674
0.7413198169079143,-0.7234866224198,1.2666612531984123,-0.11315849445608397,0.5711412420380737,-0.5552730880131715,-0.9710620291077331,-0.9875229624269947,2.2780812066754015
-0.7047284356108838,-0.6328802748847919,0.18932830729237413,-1.189232465077129,-0.9916966634403105,1.0539857711828762,0.29724427338012405,0.5720062783004729,2.343483945342909
-1.7260106186667665,-1.1530843317397823,0.967794469003426,1.0500490415534267,-1.2715485208922839,0.3246582355025183,0.3989921575016956,0.14299063480921648,2.905714704287824
0.3990441406465261,-0.9019926494431975,2.824220426395203,-0.5924654553805143,2.8652120230859626,0.3270723748778453,-0.3542063885087883,-0.5820613340930124,3.2945251431293983
-0.8480655980305086,0.5667717261841796,-0.6573725539947244,0.7114105794654951,-0.11480224875906367,3.112910201043841,-0.048965030858450255,0.8080361894020714,4.2311784620055235
1.23000057271915,-0.14896930976729691,0.5027844268951942,0.7060789138151315,-1.365824155415439,-0.24268127681203333,1.7963608229269636,-1.0263692076658921,3.2659166935794626
0.21743287317972287,-1.0399059271255309,0.6127739050625697,-0.6237689606958051,1.1081828167375165,1.9140313538667861,-1.0534155631736561,-0.19068240076334658,2.9352776138286507
-0.16912268564281638,0.91041849968557,1.5737342165551063,-1.4961588131646497,-0.6051562356059974,-0.9182121665097915,0.45668801073039916,1.3227444668851356,2.151008025152735
-0.861309579697108,-0.8370901336150396,-0.05872042710462872,0.1996104184027828,1.1400678464951604,1.0941795475214755,0.4465365069407115,0.4790031433927589,3.459682334564347
-0.303626072898001,0.11410149222651991,0.06188335288713521,-0.19024084441321568,-0.04626121726634254,-1.4974466686057486,-0.927553330811728,1.3632289751322504,1.8540908180124425
0.4494335159472622,-2.0474371857707503,-0.22072875695836655,-1.6522426773534897,1.4854773692725496,0.9669566453448166,-1.3326784410252037,0.5446245744993387,1.8318167868360336
0.9715709509543554,0.11567463429285867,1.1792971840638264,2.060747924881987,1.551151975522523,1.7553408424432044,0.06751848141010895,-0.2489641484790735,4.84098108111145
-0.7619412381350837,-1.5198927996189848,0.9262574910843923,0.18209824581586204,-0.5044226832971694,-1.0359619286066395,-0.3860025756494393,0.43594762971547235,1.8689638163721862
0.07811773523601635,-1.121751102855888,-0.7668640380045524,1.0287689914234805,0.8891538247878059,0.5016850451687882,0.06807226924862103,0.2483251425158822,3.3997208607951146
0.8301918118626102,0.42544486418417227,0.22228985580085406,-0.952316380738797,0.18517553682991406,-0.6769951384585313,1.2788658133133932,-0.772659445270824,2.9109224530564317
1.0706105599791862,0.5835443030118876,-0.12951724686344077,-0.7068925679873489,1.0417246640588513,0.8555556590207121,0.5798572852951321,1.649480894323921,3.397863482409946
-0.034550623953963515,0.12861745040496653,-0.22565638071225164,0.6373246830230725,0.8139808601977412,1.6163000427219165,1.3890243629627617,-1.3927354721669964,4.338909798349029
-0.8911922254152874,0.8950383140761154,-0.4830610516834395,1.6122206282554243,-1.5811907020321334,0.8968393158655319,0.14679301198554937,-0.2685306479058323,3.459567274973277
-0.5779207768327106,0.28580328679473294,-0.8451539584261589,-0.03392522592790888,-1.194522939766035,-1.5947559581633324,0.5533889830744267,0.42069963101847885,2.199732321338666
-1.5993947621943112,2.042177910534731,0.15532499919940146,-0.05790774987690872,-2.1047495057190146,-0.735116800724588,0.3981472651225371,-0.18592448094877073,2.4422930533627194
0.6833245115160919,-0.5711839740841865,0.04382879946042826,-0.4842583519308302,1.0899049590908303,-0.04592882874016064,0.9558027451124809,-0.016568409822520076,3.1344192784970386
-1.5085559682128564,-0.27293332022551287,-0.8356890050200362,0.8671874128277388,0.18007103769598148,-0.4973543714140932,1.0972201916064384,0.5764513451224227,3.298352745048113
-0.6057149230033384,1.0399046873960764,-0.6056155397368641,0.6779258713392691,-0.6690727386599166,-0.48791140814570266,1.8260097135469362,2.1573082132655035,3.667663949469601
-0.014098965906671578,-0.8744356483399182,0.6276062975618311,-0.15830547800966377,1.3204140097838342,-0.18385389315920966,-0.2795074632965335,-0.8456731044941129,2.780395399973948
1.8540925663341883,-1.86653661707306,-0.08268068584269925,1.513449743242131,-0.7168223206028049,0.6308116845547775,-0.12174750838328353,-1.024186824329205,2.963511656616275
0.751387123371789,-0.9075636620415979,-0.5767713305683327,0.5009171876243808,-0.23894804686640975,-0.977555244798551,0.755391225825756,0.09933230542922587,2.6545901381172525
-1.5646221273358043,-0.8707277716437414,0.7245917787231225,-0.1585376924164567,-0.773029709602703,-0.918019061638965,0.4484854541964401,0.0923767916399243,2.214435491121388
-0.8028244439508423,-0.5639474880582432,-0.8162172445419648,0.861636124497944,1.105900424357309,0.13906039865341766,0.07814306296964744,-1.5769964821909972,3.3737979576869357
0.6952029000839993,-0.5244481362626519,-0.7353034606819523,-1.0501407396021456,-1.6566232076777738,0.7574951493374855,0.7214793237573432,1.3705361439967134,2.2177235327093
-0.009300321138614417,-0.409282438113104,-0.5240883979345925,-0.8224199323822006,-0.6947131310890582,1.1210306673244714,0.152354872033722,0.00020706491819709385,2.6076311440178412
0.5402879440356954,0.1884757610181029,-0.6566893456274132,-1.5100412119852522,-0.8050951810305088,-0.2205382291565374,-0.26030904127143756,-0.19370537980496205,1.7681865238138572
-0.10322175293249623,0.8743891807127275,0.26256132900192497,0.8508979621679722,-0.47622087354465903,-0.13737178839939665,0.19358991136754436,0.3904648499288896,3.1563043545782907
-0.5497893596380333,0.12428569485085071,0.9360561679360162,0.03047641392062887,0.36901643782516713,-0.8972530061612568,0.7769367029315166,-0.6529501558320808,2.963016449115979
-0.6706202090766449,0.42719436187168486,-0.646227309843803,-1.19363683175648,0.9694572005267368,0.9191541736100015,1.775310892609512,1.0005823180429783,3.7736071817527677
-0.24775241823970925,-0.4194347526585506,0.7564883543160984,0.6594512411136115,1.4273053642892164,-0.803948414727481,-1.9140600705874673,0.30734561670797006,2.2970927728865274
1.2428625628583145,-0.9282658386559959,0.8096575301482413,0.1017883337073275,-1.364470853617281,0.30634753393202263,0.23071174907496259,0.09262758794892355,2.332541511317541
-0.3059544315315921,-0.8605654038138869,-0.3230423687730068,-0.4213568077704419,2.1112963340995843,0.6213467399691023,-0.36723700079928584,0.9481429504720496,3.227865869266333
-1.0257526836402773,-0.9455068799427312,-1.1533505105959594,0.33855287628591424,1.676393027208203,-0.9379255765363989,1.1373145423647293,0.216624975404619,3.2601787322792792
0.8080577982811451,-0.2595466775839172,0.738810480887503,-0.9354387020445953,0.5131057981760827,1.0859821161750323,0.6153674840130534,-0.535963445114048,3.1861319956347858
2.254038108921119,0.785345603010283,-0.3266137806612126,-1.5530352778398206,1.411356861745625,-1.4035586295636626,1.9853803952602933,-0.08378309988906465,3.077283281943309
0.18745938208891083,-1.2952586206671208,-1.18755316677504,-0.06433764737916652,0.9714123576723597,-0.4551717839537639,0.5789098180691342,1.0156278839944708,2.822055723734806
0.5647891059076481,-0.071120290830336,0.08559470394452544,0.7728478385437232,1.1126343052033019,0.7831598877770107,-0.27837296760789404,0.3350543519121714,3.5926589344957147
-1.793921113191963,-0.5180690194750568,-0.3009803123932219,1.243405797187162,-2.2235741679371968,1.228030209608135,-0.6314370274831833,-0.3348029874445019,2.6011217131304987
-0.7880762539036712,-0.1149509314918426,-1.4822314236773086,-0.10210305889143893,-0.18354032201646558,0.03755307666056291,1.1516655830474756,0.4006416383398367,3.0522746011017268
1.2838168598535613,-1.1564158167438567,0.8500793324175533,0.10744437434089255,-0.5800163326536847,0.3873714806329899,0.41768075223940065,0.3231854824582059,2.5807453531391866
-0.7560040194566048,-3.044656539243162,1.0216352138276081,-1.0501865373616694,0.4562494885285328,-0.9722982447348347,1.436368034243754,-0.45025338777827145,2.2136455010180263
-1.0257233949746074,0.36926377764990465,-1.5058324053306205,-0.589915396249933,0.9752005416847661,0.3310389028172135,-0.04991023304116202,-0.8093466847948803,2.9552210409566344
-2.0149012325066082,0.6418941228586382,-1.0296962396330605,-0.004072837121435025,0.8931883472072516,-0.0412596526500604,-0.48401712362208477,0.7497454754383477,3.086565750263496
-1.0247507500763902,0.7271679888921005,0.06589160860223994,-0.26776551872484483,1.2428268933268276,1.3227032199889794,1.6651423825437814,0.17557408492582183,4.370679949634125
-0.43548637056984335,0.8474216771504216,-0.5353281859539227,0.33198033056901455,-2.172669546014036,0.1904996797790664,-0.09053328230416077,0.7094518171390395,2.471143929888525
-1.0398065310268843,-1.5304614097433769,1.6296421311127987,-0.24269874782528175,1.558789184496894,-1.890010171182943,-0.3726755839519746,-0.4547947173776929,2.228835339320101
-1.342127748485115,0.8347513263248821,0.9137716213855857,1.5898389781806839,-1.0921636327180897,0.5740712208940013,-1.5457297866907331,1.3995946451457935,2.961451888215941
0.8532015450515544,-1.3559703448599638,-0.19578527096858134,0.5704211733607956,1.3909723580014006,-0.33143137128150285,-1.0422715880472484,-0.5186667196212101,2.5157738441811395
-0.9244659881295544,1.7041055162554912,1.2468917155347194,0.9514492770580866,-0.05240445057746945,-0.36650702036805183,-0.062004009366031745,-1.703871586826719,3.4594997831574568
-0.07878840008029991,-0.0325038930576894,0.830498133985952,-1.7794389254234309,0.613460165671837,-0.5330040818263343,-0.9057972133711476,-0.766352609265016,1.6978683338111915
-1.142970297830623,-1.245738778711988,0.173180925851182,-0.883857436201133,0.21409374413020396,0.1537251059455279,0.3853173797288368,0.058208718445999896,2.5448241063285386
-0.28487549336967083,-0.19646658342809717,-0.20585943088034037,-0.1767741631157821,-0.5164296438875717,-1.5486182988637467,-0.7465783465402389,-0.4911537471421047,1.6315795222849023
0.7774073527645112,-1.1476913898156673,0.08520944963390106,-0.18689615816198485,0.32405702822156063,-1.6304732437151401,-2.9911359709007233,1.205994516546816,0.8919212700978449
2.045654547677154,-0.263423635119504,-0.30226939208252646,-0.9358312297905655,-0.06828620776429063,-1.0758938287242596,0.5308671620671488,-1.1231950508753776,2.212744857229163
0.2178023397487261,-1.1983921249520453,1.0841982440435427,0.19839351717748668,0.22328091325537056,-0.009182353385138937,0.21030304022199536,-0.5177574472222197,2.760117965782679
-2.205294372755906,1.006606541032628,-0.5696989629257314,2.6378817522602,-1.6942558959950778,0.3018733807210118,-0.3578279334412669,-0.3863224754471755,3.446869871120539
1.3454200461549777,0.725766623898692,0.4810092317367132,-0.7904744554453119,0.10939479460489289,0.4714683571359957,0.22388402427913137,1.8820244964750337,2.904921706817671
1.9389289990582848,-0.25890497370407733,0.5866938014752747,0.8712972974572442,0.28328787154614216,-1.3459796802467485,-0.47490365662252443,0.12637957954641182,2.5304980289955035
0.3123782104665717,-2.0864776583710847,0.16048962397348007,-0.3600392687569827,0.007178466907941942,-0.7280770978553212,2.212531039397242,0.3733485597113982,2.904744252733503
-0.19102776260016902,-1.0021874557814727,0.7408243454201259,-0.22859991534001858,0.04091917539572113,-0.9943493746085122,-0.5132135664715852,-2.5623336587953105,1.9696249975471278
-1.0240285908863795,0.13106518621584873,-0.07744346072599365,1.4509275482792119,0.4004813865063287,1.8071966436378852,-1.1952937635992447,-1.6826586941226858,3.6324537974560487
1.3728484746765302,0.18474057889572446,2.0236062192296393,-0.19003903500149447,-1.6076610271180587,-0.3574454228104272,0.006799844559997769,-0.18039168176240783,2.1643140001201764
0.6487098875896427,1.1087035805829077,0.820482181197364,1.066674689589154,0.5906548306923093,1.1692955904456728,0.5072740311072977,1.3821589910375272,4.21492717605389
-1.3772954892720999,0.7798286407550497,-0.3751089949435645,-0.788047623233008,0.05245738688944395,0.6569290663420881,1.568518985472554,1.4338328386598447,3.483504793488692
3.9262377064363267,0.38298898474092846,0.14125714008746323,0.7682072166317373,-0.38502181171286365,0.21539650545628794,-2.1305664798072006,0.5082686396745896,2.290274836337982
0.19686123586912352,-1.0577109289559004,0.822544912103189,0.2088635950047554,-0.013497224737933921,-1.9596701238797756,-1.2208436499710222,-1.3281860488984305,1.5075436990153035
-1.1962066240806708,-0.3092123758512146,0.33126343140356396,-0.47917423784528995,-0.8392175232226385,-0.18565897666381712,0.9755451271223592,-1.1063349740060282,2.505392838087822
-0.47539224221454224,-1.6755804496240945,-0.8065198324565613,-0.4351387479620344,1.3297943652050759,-1.314878664404412,1.6772005099660963,0.21907156253766866,2.8054225976852254
-0.5613379964422059,-0.8015275901045416,-0.34718649511226246,-1.0538354953643456,-0.5125341106465501,0.4278143951529032,0.7708022199879712,-1.7019022300183355,2.5247045549359335
0.347397486434762,2.2409265562057925,0.4764301667171248,1.4152045267018234,-0.9885290078659005,1.8418156093866072,-0.15326055339930547,-0.1453494223138852,4.145093167454713
0.09988695440921298,0.223153054747697,0.551885971822154,-1.936752702502465,-1.3569355696995753,-0.7613552698089406,0.6802302084176292,-0.8782632528234666,1.6892774395255346
0.8173062037383262,-0.8907488635522636,-1.4268265767813424,0.8625434846151703,0.5024996961292902,-1.6949734385166126,0.06933716171534797,0.8202323983059842,2.4691716670557105
2.044481557199944,0.08939527893161327,-0.44258929277415615,0.9453117712358652,-2.0683757154310323,-0.5525693461188524,0.0077278931756846435,-1.8730058309306206,2.3750891227168403
-0.12038116395359824,-0.24125765461854246,0.6725737012027313,-0.13263374638257355,0.40981865692851255,-0.9745293046706415,1.8998819348952156,1.1070806692869728,3.3160875839044577
0.4610780322964351,0.29551169159033874,-0.5587958188849573,-0.33781509419140304,-0.22549342333463607,-0.6274207344263732,-0.31207193205273287,1.2288565502005595,2.3035462217445506
0.8168370114309812,-1.4042395662615887,-0.13418021067692457,1.6733639461525236,-0.03989438375171192,-0.5894523999387185,0.5193587456378881,-1.58242797402364,3.0770658674638485
-0.6385858251450302,-0.5922408448128146,0.9757133776692501,0.685857818608419,0.33795555414502526,-2.1537305737914614,0.000755507454595548,0.4469817170098519,2.3192817685551486
0.18780033804252202,0.05844948070564989,0.9126203225404405,-0.0596543119921916,-1.2894805872096875,-1.7016658582874162,0.421716933003097,-0.8097248357672839,2.0632249613489932
0.32875110965968446,0.3571125715117464,1.477894044741516,-0.8084936028931876,-0.21967188783751193,-0.5017570435845365,-0.5182702182736474,0.9154021177020741,2.2250637847783414
0.7674347291529088,-0.13826430117118466,0.6476885381006925,-0.23415337472333597,0.4967141530112327,-0.23413695694918055,1.5230298564080254,1.5792128155073915,3.211328380613147
-0.7484865365565536,0.514438834058749,0.7116148780888898,-1.5341141707356223,0.12029563171189886,1.277676821898509,-1.1246420918378692,0.33231401197959165,2.2585630931809377
2.3638724946193608,0.8872908372667421,-0.7632861041785816,0.6833289928110694,0.8691560643892732,-0.20931381957936157,0.03793783544760203,1.0729780477660118,3.4736033271139224
0.6399029571520845,-0.031261414154246076,0.1699745397492694,0.6369080790029854,-0.21800563112112403,-0.4751252784446032,0.701823040543344,-0.5329937194259537,3.016493085935538
0.32950873557300914,1.7246966497611085,-0.28744751940035557,-0.04551224530124217,-2.0841129394985884,-0.4242363333980435,0.2873289044030093,-0.5698329282387588,2.4896490770365576
0.6103702654334648,0.30729952087660933,0.8128621188389601,-0.8289950109220723,0.8995998754332507,-0.5601810401969696,0.6296288419236122,0.7472936051232618,2.9042832036729913
2.387967705524732,1.0256321138725824,2.64201191049262,0.04932816579484362,0.07450959382677262,0.7224469852209794,0.5980991550474662,-0.3652808582038849,3.5873785724597687
-0.014270352949388505,-0.43615544150748503,-0.25762048551099404,0.6891644570743356,-1.3805987058996512,-0.6836342822863877,-0.06963345330010817,-0.2737292521667607,2.188324826098727
-1.0675329142542729,1.0299608175811612,-0.33477533210654087,-0.955122579349353,-0.643549832317462,0.42359906559346105,-0.4036484632419967,2.062524919243145,2.3933101563771797
0.12557645347154225,-1.2276078151369925,0.597400069849858,-0.29756350335999193,1.1894704889246406,1.3757068133116195,0.7011727423108983,-0.15005558703252672,3.487270341923895
-0.9186519464841982,1.453384477117701,1.5795721457307124,-0.42018681709585726,-0.4455025214007718,-0.2817846088605072,-0.5228600271532683,-1.344450511034277,2.5210582084332094
-0.3748208075495975,-1.1290517712172292,-0.5245202662797737,-1.2221278088919454,0.7216720640432351,0.7129984301723881,0.48937456122791806,-0.24032539815813503,2.670574007579105
-0.2811254848880863,-0.05250506853865217,-0.14487856194788684,1.022841471550764,0.13585942408165688,-0.19044618592921678,0.043040870850387644,-0.5740825770872696,3.220613413143643
-0.20583985992134396,0.23604306382437004,-0.386022797870698,0.2496094582097118,1.6264307346088593,-2.440704014775084,-0.9157550411335605,-0.18428900183271194,2.202116250910109
2.1422703586118637,-0.48388583405432156,-0.32034730819432017,0.5228354880354996,-0.6514180036144483,-0.573700003938579,0.4241659464019164,-0.02435459226098284,2.5714602359442154
-0.08633785824672688,0.2290948316463794,-0.3231676657024847,-0.518637997484576,1.121689142387919,1.7183639957638757,0.26881235641215423,-0.18919018127507997,3.6355104405528715
0.12146106419954589,0.7195994976248915,-0.07022362057462567,0.43521152828960236,-0.7066691040731404,-0.741498249912725,-0.2871095048623429,-0.34375651951011005,2.6542888034207586
-1.8482585300784151,-0.47971889676613605,-0.43263751633352826,-0.24657105425957435,0.9210258397309934,0.7351321130540912,2.1857306167225743,0.006381540963314977,3.9816039718102045
2.814654444472553,0.7658782794806148,-1.6158867874104728,0.9324348709546673,0.20475888240178416,-0.4151002889633696,0.29964768783734813,0.7007006121205837,3.4063027381095856
1.9529173824895107,-1.2101609434141578,1.5914003677628041,0.9641558841719786,-0.1570248284447078,-0.305444702441682,0.8767141863861161,-1.7291828895034203,3.1366781142031095
-0.9506906934152551,-0.7402322525487084,2.1209935658451093,-2.3851136986930364,-0.7329260381085351,-0.5652587392104036,0.9778475646543314,-1.8119893375620542,1.8045014567655733
0.23614240987910107,-0.6566240707997048,0.8739897510068825,0.1829944496452604,-0.14713950481410695,-0.8342713430679655,0.07843924608367009,-1.7176721483633963,2.453553763003253
-0.1873290184063747,-0.5846177306571996,-0.031058932870901952,-0.936506374789596,-2.0870270186020687,-0.6677795564688862,-0.9096834169818336,0.29219272832637316,1.085253584894522
-0.38851845308888583,1.1337700968670645,0.5935567222808619,0.655900776529761,-0.194908280352681,0.19473619471877485,-2.9403886346642802,-0.018708756445897416,2.205485407881537
1.478071898356444,-1.5553737338412423,0.20084509311570958,0.04128745558743938,0.6095260452086012,1.0371588986582432,0.1007910726448063,0.3344385148485215,3.1284642397431455
0.44770856001731496,1.4437646040732595,-0.0821511783925688,0.34272534637770413,-1.251539424190444,0.4567532191537839,1.1172958315881276,0.5697672802322039,3.450351668501178
-1.9875689146008928,1.5646436558140062,-2.6197451040897444,0.08704706823817122,-0.03582603910995154,-0.29900735046586746,0.8219025043752238,0.0917607765355023,3.3113211722432325
-0.1758858124323366,0.7421274910718922,0.0754336389015928,-0.24606248812994858,1.639964529371393,-0.8432465953161917,-1.6019658118971685,2.1709427174978138,2.3482295633381547
0.4766510408005575,-0.32601249581684916,0.3903661943953757,-0.32038505943679435,-0.16838492247285253,-1.7793989305072206,-0.1539052269746876,-0.9399678291500665,1.8737449131809463
-0.4046958568633263,-0.24965553821891934,0.2075422948887419,1.847866995702103,0.9792597442869628,1.1905296437176767,-1.3467856621154346,-0.20068521837532977,3.6165937061484494
0.5400178017231407,-0.34319156868671197,0.7589816954601127,1.5323803825876219,-0.9906232233772576,0.4205367059040693,0.44807834101289173,1.8481091041055524,3.4501629456206975
0.678728069279419,-0.3150819279089234,-0.2414305647249931,0.5055578532150077,1.4488201083377155,0.43623570480105506,1.466782556898976,-1.1909165059737268,4.138389921282501
-0.5491589417637764,-0.26813913924176325,0.16663789531183854,-1.1941866514118442,0.5845240518374347,-1.0126444414430895,1.0599501697623763,-1.9354299597138063,2.514952610129543
-0.38003684628935364,1.6370824079927424,-0.7801438813877718,-0.5591638350592083,-0.6304584541854775,-0.4603067625743631,0.7352693099749874,1.030249693969567,2.8186120940124084
-0.04147177799914767,-0.7624179506029144,-0.7603636412161305,0.3824333156925354,-0.39338229774465705,-1.3121632011955178,-0.39361158203300994,-0.39711533156785284,2.0157756105133267
0.032407013340136216,-0.8246122504347609,0.2766007655111807,-0.5966290586117302,0.3074035697196884,2.0979393391324312,1.195480650825479,-0.5256309339853844,3.613655988765533
-0.38045590416635117,-1.389780143192669,1.352039365974326,-0.041248128979203026,-0.27037139913579117,2.159121154603292,2.0994075205025093,0.09131472861134962,4.061216708938916
1.1906462747863413,-0.30246968648812833,-0.38817681854122876,0.1605739810498646,-0.6134026635409398,0.0030460201534144695,0.1704162223754877,0.43693816974634986,2.634084625077469
0.3064508629633407,-0.8140106692915557,-0.3656770825305199,0.521449399059529,0.33011379047094364,1.3369690735559603,0.504270748038384,-0.08225369967145317,3.5539631961230906
0.40813591277835637,-0.11766730219285336,-0.4554670562497405,0.47463348556679213,0.6353291952162062,0.7075918219746196,0.24495709317200393,1.1782528475480023,3.468931772984285
-0.03151851332810415,1.1633760551635501,1.0687923213942923,-1.0884112356728457,-0.6865387531537689,2.560502959355684,-1.2859997065164936,1.7509259419271435,2.855385551682865
0.9458696436841456,-1.9495617177543672,-0.35084943007647457,1.3697011076541847,0.2620668090867255,-1.086054582118086,-2.2183477600510813,1.2554036094598964,1.716171507074836
0.2063617713254507,0.3933070500053236,-0.7380570836613916,0.46027162498230384,-0.10434279298689192,0.19484234027013805,0.1812511626020504,-1.0196953197088567,3.0971872756426304
-1.543450943185747,-1.0078679132221302,0.25373729677483314,-0.28790607686792025,-0.6084939037312018,0.2450386643154059,-1.7930763979123896,-0.26995189682516413,1.699950645683777
1.1096998419562232,-0.6777449705248515,0.513907849658915,0.3506300992735592,-1.0003313246055747,0.4891871301476635,0.17958178193959795,0.6347214685617699,2.6611007505875506
1.8009404329108156,1.3291525301324314,0.19652116970147013,-0.08973569428722672,0.6427227598675439,1.4401172154494728,0.7090037575885123,-0.6763923020592697,4.0362377765033255
0.39792704994680894,0.3113086734428849,1.6999573745763805,0.19063559126502433,0.19729226563120644,0.9413105807674833,1.0715431522348857,-1.0325239035275395,3.816675745166149
-1.405567019178642,-0.21804589539237385,-0.8476339286190848,-1.0896330373423884,1.80930634973311,-0.7847619081277034,-0.6520888885930607,-0.370508098590029,2.320658425775155
0.5921139002849184,0.9435977762729458,0.7065054635472527,-0.5459619271149279,-0.48667632288159673,-1.3496496702201406,-0.019122179853707483,1.4201849387819487,2.267239677748919
-0.9910911353316136,-0.06541023359539401,-0.013503244592976752,-0.2996934959328892,0.7819425354519183,-0.7634653033091117,-1.106732987729451,0.383455014854216,2.2174328072956104
1.4287601620367705,-1.1630426502846019,-0.41342377063644137,1.4622546040347288,-0.24936962517248124,-0.29045391622778904,0.03239621368357873,1.0725417995727589,2.939288993632905
-0.525755021680761,0.18334200573835174,2.1898029332176723,-0.8397218421807761,0.8723206367206782,-0.5993926454440222,-0.8082982853551515,-2.123895724309807,2.415194584898318
0.683223014788808,1.635797806135815,-0.22104246353705057,0.19259691873130513,0.5648423586001226,2.3921096352739926,0.06936980265806943,-2.0993562644190256,4.201834112025464
0.213979910734222,-1.035242322419374,-0.553649305347182,1.9647251329163893,-0.10703035995455783,0.03526355197172861,-1.1978778925888485,-0.6997255079925856,2.811092396650628
-0.11381253841375806,-0.05727041082210227,0.5480669247071704,-0.7423863704307346,0.2722367253273881,-0.11599707232153356,-1.339489366528659,1.8978872926587056,2.0917707429142256
-0.35824437790750796,0.9575371632797675,-2.712612563810438,-1.4308312016246718,-0.6737901056594764,-0.47655380143352466,-0.14945569316498877,-0.29882008902920415,2.0407625988064937
1.5295503194606137,-0.5112156764311852,-0.9896048202585809,0.055724912288694604,1.593186626639397,1.0941915184709485,-0.12578692009964815,-1.6924646297148194,3.4193920487147076
-0.08371795984921201,0.8201581867554845,-0.06468860503251848,0.0731969910016945,-1.1430193120737286,-0.15024298879825998,0.07287409801551539,1.191707497107065,2.626932460935528
0.23987275228472507,0.3431585541974166,0.6229440304133081,-0.787036278933299,-1.0777207457916016,-0.97826564926624,0.641541644936012,-0.5066348337879193,2.1561864924766034
0.7391804947015679,0.26426827164563654,-0.15011695125380659,0.4861847915619389,-0.11464083550639245,-1.9493717553224232,-1.2640061679473638,-2.0503574572842003,1.8955629029557024
0.7445863984731299,1.1655948951441282,-0.05883285413152221,0.19112423383639218,0.9625025919532985,-1.1497074728974057,-0.2209317249396126,-0.19360951103550808,2.8948736169782476
-0.5892716517893062,-0.9040682897360003,-1.548960525053475,1.1038773433162576,0.19613145902390733,0.4751677464953816,0.2579759812211809,-0.002403840918853844,3.3067953937142596
-1.17223375343664,-1.2284438312657626,-2.0755880090785332,-0.15032046027187207,-1.8311448783383502,-0.32669621318636405,-0.08606969279089306,-1.0425776946705763,1.6760037560370589
0.29471925290230155,-2.380739105523497,-1.829681815208083,1.0371814056490503,0.1293680067038185,-0.9104867035315213,0.6159670060468382,-0.24402835217113436,2.5337735835956954
1.7681692930597834,-0.6332313967149771,-0.8506132529519478,0.7556658387443146,-0.601944441935177,-0.2218882712922687,-0.5410068657828994,-1.349773069381231,2.4226499056788366
0.6841632086089545,-0.23066166663970813,1.1032175720536581,0.21896391585597508,2.7030275644050836,-0.8418216318681523,1.4419424019526008,-2.4353123317828884,4.082239281549268
-0.9735461997044687,0.18384954475369486,1.8005111815108537,0.20965941527462578,-3.0195121558208253,-0.49163618563204736,1.2389463529394373,0.8071225966373103,2.499044797850139
-0.8372624310497003,-1.5166425494207911,1.4769344261182744,0.2167755637626291,0.29562448874709507,-1.097302527632844,-1.167779551267935,-0.5888668267386961,1.7910420084050285
-0.6374874348250117,-0.5090938053115694,0.4853599075531901,0.3056655686425959,-0.12887737868875357,-0.7312545688129569,-0.8491048509902235,-0.897659385275054,2.1980645592004313
-1.1742022957201466,-1.1251978277377233,-1.0886934104763422,0.5628544804571306,0.24690606341661173,-0.13774106038792705,0.561472629826133,0.780201721186075,2.9416982347967937
0.21471318317052634,0.7450053128772811,-0.19469729611668168,0.09175248444837286,-0.7188323876087304,0.2522403964266774,-0.06418817710849775,-0.11622904312195817,2.866406279512019
-0.2539517063972351,-0.7239647304677874,-0.6443402670219842,1.186145474042299,1.167509822986446,1.540323979819886,-2.7391402061374728,-0.55317724534727,2.8670278177512762
-0.20661127969604665,-0.9822940342546795,0.058984221589597374,-0.34254920085776497,0.4535087125544674,0.1704637709965709,0.446872500802698,-0.9627325652846123,2.7825163102983876
1.1904749851934822,0.7265116223360603,0.6937061125361853,-0.790017096815208,-1.4972323944841732,0.6928152103009226,1.5844943751570586,-0.28370672836473176,3.1249377638687648
0.4892545350763276,0.9374774925069249,1.6350663945275195,-1.092141593428733,-0.21596052035023222,-0.253676077542381,1.311693449272661,-0.34516470544979644,3.022832931691346
1.3633765135383398,0.6590543439134197,1.0268946182579144,1.618787639660868,-0.6410812665383554,0.415826629455343,0.5995775412453558,-1.216896710340167,3.773717701210029
-1.042044412243103,-0.24149744587077882,-0.061764199860128925,0.8745170741325226,-0.2561797524953801,-0.6497652268482671,0.4794415180860639,-1.2032008553891445,2.9078931844596987
0.21645858958197486,1.088950596967366,0.06428001909546277,-0.7153037092599682,-0.47193186578943347,0.6795977489346758,-1.0777447779293061,-0.7303666317171367,2.4164774155812476
-0.9797212247168068,0.07715649621771674,-0.5938114080687051,0.0785770297191498,0.4283166923752375,-2.128734094414812,-0.16563141031763223,0.4581681147886987,2.2320593145919156
1.5380365664659692,1.356240028570823,-0.07201012158033385,0.36163602504763415,0.812525822394198,-0.6451197546051243,1.0035328978920242,0.36139560550841393,3.6395716709817463
0.8259235830306532,0.28203621046222055,-0.1528549918142255,1.762979652537399,-0.2230256812664022,-0.5077167691497139,0.4335624601918793,-1.7151799707034205,3.45514978559651
1.029180436127967,-0.9116173021539026,-0.019918396299731203,-0.4283182577977557,0.7820273875741276,-0.010465129052729338,-0.24788011907866303,-1.1341711452777905,2.5919692799280023
0.33935581275622034,-0.30601395435740886,0.1454272174057594,1.6923465724632047,-0.7615878650362199,0.14432647172603683,-0.7037103993314333,-2.703348047107357,2.980007246759598
0.38818579565473343,-0.12492159532356542,-0.21519632356018042,0.1501356539562031,0.05651064846555637,0.7124817644338045,1.1433981071495527,1.031380525277331,3.5421419915451855
-0.3700110298821277,-0.014452270878279104,0.5462842480036996,-0.4363858905265686,-0.47383934707091613,-0.10960980392583083,0.0064222698109378164,-0.08836295920533532,2.425142927609259
0.013043374376952133,-0.6615414425152919,0.7534194635024307,-0.856348518281204,-0.7459421264756013,-0.6116337366945591,-0.6145387836910949,1.1186323341542117,1.518448897799825
0.9256722095027217,-0.5912847888018945,-1.8465730478044171,1.0294405559270405,0.5560220968422908,-0.33689512678513855,-0.4286545269165333,-0.8464343014589786,2.7887267463640604
-0.4872285641135523,1.192507512477975,-1.7785875840065168,-0.5041798310076715,0.6802161054504494,-0.08152267310164589,0.31965182591897723,0.34767648353833636,3.0375222089597993
-1.7608088119807759,-0.372833152091767,1.7269638512334051,0.22468472575188592,0.7223813578277714,0.9325908318730899,-0.39963618561460235,-1.4183657329330317,3.2587290352373386
0.5225141052657575,1.4223698616985077,1.7388996637975789,0.08531814256502405,-0.5975101946916416,-0.8082657216409264,0.9788580507817954,-0.8304444065565653,3.127861395363198
0.4373131870389607,-0.6176416769336966,-1.5350402475323597,0.7127120288613313,2.2816518365388427,-1.8831502080585838,-1.8800100339077637,-0.37231905293792283,2.1269238418654144
0.5433908278718096,-0.14325891536419263,1.0965471182302537,1.534482101794515,-1.2905614219462187,1.1223742187031596,-2.191253851165281,-0.4597646158304763,2.4020254285166622
-0.5387903045767108,-0.09676010318688932,1.0108397350203135,-1.2444864498888657,-0.6332727047102726,0.4498272137265099,3.529055187570484,-0.7075522852941063,3.7456770378681954
-0.41896344552123466,-0.015563088870293978,-2.954248941242031,-0.625916017684602,0.8634372801898786,-0.9782549380604774,-0.6417271436521294,0.12224300454706621,2.1654107806911247
0.21273977585766032,-0.18256897437954112,-0.9899577925520139,-0.8110008636288448,-0.49693202511797824,-1.1140464501619933,-0.0350076100062359,0.25866114785538813,1.8549594737647546
-0.8978300664256293,-0.9355962987624259,-0.17791787580439816,-0.4174303819894322,-0.589112132781127,0.3440539215634665,-0.912810919296513,0.3483417392461269,2.0748401980880837
-0.0038041336707993834,1.267960487103089,-0.02439856723615665,0.8425138964550043,0.43945269045799057,0.7549587661419644,-1.4222296495062072,-1.941858659379406,3.2112498564366825
0.738237230816162,-0.040333910214043756,0.7453607240778758,-0.16270370156909178,0.26425476360733907,-0.8711930300076307,0.0935234964386097,0.07215323682176132,2.594909106898217
0.6351718016819695,0.9246336829127688,0.05963036992017413,0.6982233136135899,1.3993554365860021,0.3934853854217496,-0.6469367777055739,0.8951932200277323,3.6452809097905203
-1.7690759048891183,0.5054701591666269,1.0602099074988798,0.39241596717876703,0.47635776935621926,-0.5089636257074988,2.7596600389110777,-0.025574312191994436,4.201768058243877
1.156006669451127,1.2888634252063023,-0.1330031639300636,2.14300705458491,0.21838898754417418,-0.4697644643371368,-1.320892282506161,0.15875605093754283,3.269946369367763
-0.6801734763479509,0.18198988262279764,0.4394860480085117,-1.8037504840924963,-0.4377373224043246,0.3314708963308953,-0.09830984745437601,0.364561477355457,2.0401898910841907
-0.22747625995340778,-1.479444223139724,1.259233239786799,-0.9733788380270346,2.303638752104789,1.0071333364731596,1.1464408704007276,0.3361449630262288,3.645811988613115
2.6366691419455885,-0.5209685512310958,-1.0504376287559674,-0.10346278984692345,0.4403539938779136,-0.4895706470306716,0.8461184692959337,0.04189592115427648,2.8735987318746794
0.4877748210843382,-0.45341410838385404,-1.795643172630015,0.732829081821745,-0.42375968202270325,-1.2742321190767951,-0.3300901917014373,1.0484826510505925,2.1342848303605666
1.6614701657280182,1.4898634386020821,-1.6009039784765156,-0.10325476014904739,-0.22320225463480511,-1.6431888111541673,-0.828497024780246,-0.17585440443207118,2.083858242031414
-1.0753123930492379,-0.2880388739220764,1.4185313451480366,1.2769653860881878,-0.6277339060845056,0.33802348110170816,-2.4878086565350794,-1.2070216478572156,2.2382877070511715
0.5583364232117055,-1.1260539609110503,-0.2563406783724922,0.7978437798957666,-0.8568518651277993,-1.8593367716600575,-0.5380477584901385,0.045491476330752,1.6712801207265993
-0.15525904882474875,-0.21220896990115168,-0.9519184600222356,0.2577525401427507,0.07203686128374476,-1.2417605754816243,0.07748051851886253,0.33417641724489744,2.4046412214281823
0.8393491142316022,0.5843141664353099,-0.10047572057170515,0.41055008532761655,0.370211889941741,-0.2310694774576803,-0.057390703001542406,1.3931812579349059,3.0529210098139266
0.16805980596682024,-0.15936223214590656,-0.37058276240078286,-0.7146806769904318,-0.45784838618248924,0.5212799050138145,-1.3480471119401671,0.3216785413765001,1.984227614458904
0.7600559636896026,-0.03703679704841202,-0.42930222451725997,-1.4063174636718339,-0.6117690909052854,-0.08310557262869477,-0.692420979873856,-1.5047203740310022,1.7499893453768023
1.879874549421008,-1.1966655922843958,-0.26556051251854124,1.1992995729215856,0.012223548415169466,-0.03227689410261781,1.3701018536103708,-0.08708472614314992,3.5128655000840636
-0.0017141536690639572,0.20335945999876773,0.6817434088151417,-1.2261793578126834,-0.7871740699869963,2.196646054978954,0.9625028858001017,0.7674793445541306,3.29166137301637
0.3596808476863211,0.03855516878431771,-0.4836586374375685,-0.16841971202888115,1.0852222636616315,0.6036457389607386,-0.24672442411444054,1.3746112675765545,3.19426370853624
0.32093006192565754,1.1328046971748071,1.5973972932216232,-0.6547697756239492,-0.4047953794202932,-0.5106084992975795,0.6446898032842333,0.07991526374003749,2.766653847144669
-0.642776382899948,-0.8859707338977769,-2.8500301093171823,2.05419384125607,-1.2060223714081189,0.14782073903652695,0.5445824007936281,-1.4162688593406074,3.1915328150843365
0.19157739619408962,1.2906444609225471,-0.39719531614598763,0.347561613803552,2.01527511046064,0.08669769941439658,-1.1022697404558555,0.3556689485632294,3.295327731074
2.052972024501663,-0.41361566562964275,-0.4776455826040052,-0.12765468151819012,-0.38769991640856116,-0.56060763684731,-1.2551353719733949,-2.929448690002268,1.796801742491462
0.2927154821418534,-0.09791524644290406,2.2724347204468818,0.5737444210044131,0.5222506360177785,-1.276304416538336,0.8890371222798921,-1.2883076174635377,3.1304596457202534
1.6773770878054892,0.0013256887344072295,0.39542098538803816,-0.5893322314273619,0.8811467208133691,-0.4586386361010845,-0.9575689550152119,0.8567024802425557,2.3121822682305657
0.40662203422267407,-1.671169772494065,2.0358735351817927,-0.49195690486948307,-0.3652409774898465,1.3280568889869675,0.4689780781484677,-0.9727645167600009,2.8459492840140594
1.3773350295283417,-0.32351494678445714,0.014287211883989065,1.6129781705930544,1.0621674475886602,0.729236949310753,0.9109444038394753,-0.08317177193461948,4.276084970516887
-0.21492103028873533,-1.6624919880356743,1.0325462043416573,-1.0909664302151982,1.3043402428781525,-0.4108142879545848,1.1267051368275833,-1.1057046684859357,2.6584968064011356
-0.21560957856802238,0.5913492417584003,-0.7239903317426091,-0.4519493719118777,-1.3957892021924851,-0.7893385057196743,-0.19539035117702397,-0.0070449854805546995,1.9858515952523805
0.1376619408680461,1.4758791505039655,0.491445510894402,-1.1370328831474874,-1.2843870360725143,-0.8218148284213459,-0.2290810309217097,1.3025903967862316,2.0015794230949533
-1.100154232971695,0.49774308909139425,0.6659242520544614,0.8389405004696122,0.23007075919140207,-0.6172531865469232,0.4215866106144557,-0.5583017539460305,3.240468551991081
1.3863493972628433,-1.060605066396601,-0.7170161491279362,0.9778155496862003,0.05225849049748321,-2.1056469418403245,-1.2845842656999693,1.1535903433169254,1.6899756332321723
0.047493468251642953,0.02731337985143867,-0.04737070254443595,-0.9403989164843533,-0.6538983883255765,-0.5607609069798603,-1.5821767633461272,-2.0362205028559366,1.3819345761581021
-0.24341030256790794,-1.3239510842195628,1.8076308056706858,0.06578864864896251,-2.010216654566063,1.6629314471898375,1.6414286277223145,-0.16007448660830478,3.2959629551069893
-0.4526901485095334,0.6635978685607627,0.20479787728191723,1.4148406628255548,1.7443111147431112,-0.8741992700141499,0.4091409227759939,-0.11184710408631295,3.9371189612788875
0.5042878533842724,0.06233134961912296,0.10716991525959621,-0.17529452990401284,-1.0258681059694763,0.3993176017191309,-1.0785127413645972,0.36039339501808015,2.1169213256783967
1.2361307218062179,-0.5827586576115821,-2.438817158276429,1.42274813609994,0.26536234939962844,0.9262154022415924,-0.13427916218630415,0.9653974845911707,3.461642290361005
1.2238559185425932,2.105297429458312,0.034887947089408566,1.368079350488601,-0.8125457701219858,0.125901388394959,-1.3755108895687427,0.851124098380238,2.970948218851919
-0.8392096673390064,0.26859227886325693,1.5284684264125317,0.538296079049633,0.0570131248970845,1.0725073373098022,0.5078357562896237,-0.3649527295428853,3.724902809845304
1.8522781845089378,0.11092258970986608,-1.1509935774223028,-0.600638689918805,-0.5443827245251827,-0.2916937497932768,0.37569801834567196,-0.6017066122293969,2.442253537985681
0.6746949778086199,0.09030979920643496,1.1644117405352703,0.03433338856883548,-0.8814337052269955,-0.36249900288206854,0.9256767577138694,0.9475119085755672,2.852933239014156
0.5711794062192087,-2.4263920705352082,-2.3869298701956727,1.0973001875437087,1.2840957939481172,-1.5656480316055963,-0.4958781720101493,-3.007632339693757,2.240920414262482
0.8502217421134929,-1.2829922241885696,0.99626681944714,-1.556581898659751,0.07682189106025536,-0.4281151609659125,-0.4937565831613125,1.5007597906343109,1.5597159236160463
0.44947391283230687,1.0613709648731335,0.5320061988219431,1.7611881248673737,1.1008213984226052,-0.0003136726117747121,0.3616610612470166,-1.1818741254208012,4.321763858258584
-1.7073579575929467,-1.3526702858435344,-1.5223591862178911,-0.6292633936927887,-1.0293715081820716,1.5337277099164992,1.1126883749899252,-0.5358014630522978,2.840206899953304
0.5106006904103135,0.7410169513364492,-0.28815026242251623,0.15763455844094396,-0.6368452142703895,0.19495509241218734,0.15047449877390098,-0.024129110454973405,3.017370383011181
0.3116528560047783,0.3379575282321183,0.8913036868697555,0.6188862980231536,-0.05592044852221312,1.638359732270941,0.004229858994151577,0.38130961226478466,3.5978591440047225
0.6227112239002686,-0.15083771156669531,-0.0739475656083926,0.19502498402812674,-0.46580556911816284,-0.7582820688875902,-0.4516594761596227,-1.1306153349375263,2.2931885255218236
0.5087250232299338,-0.060660813814620775,-0.7084067669104628,-1.803139676255945,1.9011906857530074,-1.5841359430054898,-1.5137143926128271,0.2671266510114834,1.4335715152669306
0.21853404241094568,-0.3220281544920584,1.3254321090950785,0.5859042011646491,1.6147787907098514,-0.736770135947622,-1.4068150094975382,-1.4152671919241875,2.6731073527403635
-0.3095464393139903,0.44426331148603976,-0.3609661658190799,-1.0810633275998973,0.7109599682034915,0.6159356069442637,1.159329803364248,0.5931012579683838,3.481460262151106
1.1568337810369889,-0.36931877015818887,-1.5794362987175987,0.3912093272373939,0.08244176663484246,0.5817817706283626,-0.8178918421385055,-0.01622311759594124,2.63741524900733
-0.24852861807444937,1.631856899089109,-0.7330329955239894,0.7751554940347831,0.20232879642280202,0.5530400858523584,1.8180619225578247,0.23402445435314795,4.488905657263137
-0.0033744574109520514,1.2083662305931424,1.0240625258114624,0.7783610761666377,2.061503576636398,-0.5511857163285334,0.5925269492011831,-0.8181988834223072,4.035631743707647
0.7003098794089914,1.0536417966078395,-0.949398888831943,0.4933179008808892,-0.9758732529773327,0.1848361236948739,2.632382064837391,-0.8583577801812136,3.980780977960552
-1.5029703283951532,1.9583474542205939,-1.2295495944524168,-0.46531045678005334,1.100959634998571,-0.10594835430413566,0.4966992232365217,2.6443433470170348,3.518001753623782
-0.5069431753711298,-0.32138584165299344,0.41293145427562433,-0.8222203955664315,-0.8254971967925115,0.2436872114919123,-0.5637245528039747,0.24496657110872277,2.032849786988499
0.6105857452838231,-0.24751863555150475,-0.07443342910004629,0.17770100093325383,-0.7271371758248686,-1.3353443587101013,0.620672097550678,0.3801978510059632,2.3651733545067417
-0.5707462937494763,-0.5309969550018176,-0.6231405264247644,-0.6373871273065177,-0.637739984251316,1.1890165311075518,-0.5554771191602547,1.4205042479898549,2.309672120933196
-2.301471717669987,1.1247767199858125,-0.5125887969785088,1.3902553275119895,0.8983595683469856,1.7873464144298254,0.6832124040010689,-0.24633528117984818,4.72132823005459
-0.752435237353035,-0.4159669279473586,-0.9457460606967811,-1.317131919946585,-0.09662367001488972,0.7760279138434754,0.6082461916849685,-1.0022170189267248,2.5823392328995505
0.4182057558879721,0.2078025073533134,-1.2926253471522626,-0.6073544332122114,0.8407344821295493,-0.07722104522304557,-0.5321685631271895,0.4258436586298291,2.5346914719291833
-0.14408755572161547,0.5296927543567308,-0.07049877805909122,0.06447441481012024,0.056649924897107164,-1.9754665663538713,0.4865016438262019,-0.9393353938187543,2.483075680596185
1.1254347844147694,-1.0718572330401555,-1.5537587660160643,0.3764095260975166,0.6704806172412126,-0.9020515543575104,0.8178896580250287,-0.8696630812746944,2.868204844104822
0.17775010626803134,-1.6873443471107104,-1.7938924978678903,-0.7090209576304904,-1.153332403205745,1.9532591375265682,-1.3554475031122892,-0.5258796758952039,1.8390146406159322
-0.2950899142379063,-1.1308884353259157,0.47363207681145447,0.5555126463422483,2.0565435648295414,-0.9186865114860944,-0.9263811299815384,-0.4173668136050844,2.615337134161822
0.6308756035961556,-0.9243573336303755,-0.4509940170293094,-0.7725421118422359,0.4612720843178312,-0.05796399966830253,0.2939493879431622,-1.5138305012448536,2.425028068196278
-0.14702542343084998,2.046862195719558,-0.6749340187905523,1.991553302204734,-0.22247489677826537,-0.8320613048498566,-0.4030759890650308,-0.5501152829365389,3.525103966886166
1.1727568452674448,-0.712220763649051,1.186734620177331,-0.23811043631205406,-0.8810683366612923,0.04600274725327412,1.4363354057059785,-0.9046143749937661,2.8692294903506825
0.25893042822568985,0.05237276872756848,1.0454602404822526,0.3812446551620988,0.7813581198065147,-0.04060623167853,-0.20141990007697352,-0.09621226204057896,3.038962081771687
-0.7673475628880495,-0.7730097838554665,0.024510174258942714,1.4511436077950417,0.09767609854883172,0.9592708260852069,0.49799829124544975,2.1531824575115563,3.7440606271388996
-0.668144085538994,-0.7517910500951843,-0.4263575962055433,0.11327041053776446,0.29875290836568624,-1.4382779783173667,1.1484457091967548,0.9192289345752035,2.5825280050242028
-1.478546936998799,-0.044361455511561634,1.378467355453808,-0.0547783603388251,1.0102745868360157,-0.9224129848439533,-0.6715122069805457,0.007362681423567135,2.5837822082499553
0.6021183203924835,-0.9600462952794637,-0.12270893359572414,-1.1302037246739238,-1.6548874362282961,2.411676675578421,0.09337237427665124,1.5163940552535728,2.376318496729379
-0.9530404633648498,0.9373674142536799,0.8301613723463044,0.2201893142051328,0.9951676651586061,1.0323893981263967,0.372842248655825,1.9235134876034545,4.039439442523475
-0.7067067683730057,-0.18324524320928193,-1.4419103561118092,0.9531762543293538,-0.20233890687008754,0.7890752013999099,0.9459295852703784,-0.6292206728473624,3.7054185756359006
0.4147728907887909,0.0340080962281468,-1.3650217954266353,0.518871180440122,-0.7908817916945654,0.49580502102757085,0.7014947819247145,0.00161903135694112,3.220736414864416
-0.7557451594928447,-0.29027454418865134,0.26739231407190295,-0.6680904536430488,0.9190764829877686,0.9920423495365228,0.3216978061960136,-0.17495975669540864,3.257148107537517
0.8157372125392968,-1.9663565893760018,2.056207129940322,-0.221253623585772,-1.0448091940210336,-0.27681329988892067,-1.1032083657216831,0.30740669780910074,1.393112336615724
1.278434957965715,0.6734727961582307,-0.24691832748945464,1.7872399646046684,-0.9331190886861417,-0.433990462215957,-1.9259778184451013,1.4955717364824264,2.518733313615567
0.784002779310748,1.8205439079418155,-0.5663945912147232,0.2094700836477726,-1.176962112769968,-0.9845340504819681,0.8316167861804036,-0.0059547092127293835,2.982916281579529
-1.4084612963635597,-1.251113576385303,0.924027019206901,-0.5227230205190395,0.326133022242118,1.0490092258368893,-0.18490213644298903,-0.7043436905427592,2.704540385381024
1.1911730449400957,0.5755619258303651,-0.29505618980564213,0.31282223676684645,0.9954151904494745,0.5737671099019008,-0.46285628571437976,1.3978443070314983,3.364854071639291
-0.7934597298834714,0.05969188057973627,0.10618291944021628,-0.057836612377593744,0.19340636718971696,1.1277880271116458,-0.6378086928599359,0.11397066812777235,2.9588195445188523
-0.186971302985446,0.5578103063518622,0.010352619843380607,-1.0651136630753726,1.3902075490173134,-0.30522470435466764,-1.3118362323501596,-0.6095122021592831,2.0812888168385775
2.3200407220172594,-1.0147594931858521,-0.36146276669398575,-0.05390484900573916,2.0860470495371137,-0.9823035803773146,0.41644603810145264,1.1218578562304709,3.0723242517392624
-0.31030770538490365,-1.422974925261673,-0.9701242603796436,1.2376537575119981,1.036087651046256,0.37976763604089603,-0.3975577654917214,-0.9680457585102453,3.20331366042663
0.8822864925992157,-0.2580455156111615,1.2685832356474693,-1.22322023006193,1.0653762722596027,1.4246277320772434,0.491412756355527,1.5512452664277294,3.3093408679568883
-0.6493648196138809,0.13949779614745886,-0.28483693774220137,3.0982994340712575,0.29746205311781654,-0.2581751380314344,-0.10619409003975315,0.5101243612500749,3.9368480060281406
0.02975613949574519,-1.2767485758203094,-1.0810565404082624,-0.03955515385665504,0.27157883719537346,0.6815006973726244,1.0531528533329035,0.028318376130461172,3.123777563271087
0.960305168086668,-0.4598592623151402,-0.4296349785275087,-0.4289807173724197,1.4465632912513675,0.9647698943024456,-1.3011092663913453,1.299987372262134,2.6986882797762637
0.05119790188108534,-0.048088507330772585,-0.18315047105329468,1.1806409124521446,0.8155010224442626,-0.6273134459513029,-0.35667313417987123,0.04522270899998256,3.1309292915826905
0.8297324178791745,0.17682087213939798,-0.5466800845872654,1.673452090298537,-0.7217375533372533,1.340461051790348,-0.2716551103260533,-1.2995812369275976,3.6247619871499652
0.22323891412915967,-0.6537663386488198,-0.5956612940434921,-2.1356742139786955,-0.9057323008626189,3.1377485336599937,1.3744380931708173,1.0560568090660518,3.0830120879351606
0.28384456730273677,-0.8963675478251808,-0.4486956826194842,0.5989963416842641,-0.5789517573489231,0.8533489773401466,0.23425926445676556,-0.49419002306691273,2.881288786222762
0.6666278834568907,1.0306598082415594,1.0947985022273252,-0.526555133136702,-0.0115150880766451,-1.3223474346832955,-0.8059917310594155,0.4090649383340571,2.0724021821620253
0.5639091200523596,2.2909425725907417,-1.389572466763596,1.0225704320096403,-2.499405714873573,2.439752406339273,-1.6453987469568918,1.3842728185105182,3.0808379231967105
0.664927162301741,-2.6031370878272986,-0.3613105619672905,-1.0105982199289134,-0.3021805869826214,-0.5152183938082427,-0.06418416128881928,1.5301951988633513,1.4728655618020992
0.624903594654043,-0.8414495141290085,-0.47783985070379115,1.342180131244854,-0.43578972962363594,-1.934087745459577,-0.04460653218300141,0.023080658950420673,2.204787141626571
0.3675104105406022,-1.853018482897569,-0.1248868853500674,0.21865930675729772,-1.3015879828033312,-0.4463205152343449,0.01569779595775838,-0.20063929882543183,1.854380339093992
0.8648244384910113,-0.09752538374562343,0.3278110735741233,-0.8108939362002497,1.7159076311326944,0.36681404328544226,0.9524781569528054,-0.7404901063321585,3.529490599750184
-2.301921164735585,-0.22096959953322298,0.6141667000434252,-0.5305011476105275,-0.11232804969082982,-0.57581824064468,0.7575077100473051,-0.275051697151644,2.590844437103031
-0.24638340251454802,0.479827035366833,-0.26864575330974255,-0.43277388358838864,0.01282864354368512,0.7938184671438157,-1.8363597837703973,-0.29737607924310644,2.289452684215327
1.119244917564096,-1.029811848541845,-0.12334406404611045,-0.6556877194614437,-0.3187483152461331,-0.2357112448566685,0.3090474430326539,-0.9394632419859826,2.1969761498317686
-0.27484530066979224,1.1622595975056669,-0.5395912207371316,-1.6320148850264173,0.1675701058009903,-0.9049478329380662,0.8949105560268252,-1.8070413949318163,2.5241083180906703
2.0895387216947734,0.4663583744463345,0.9873345165891019,-0.31984752325484395,-0.23401985910698136,0.15175799224874037,-0.07595102364252276,-0.835142901630023,2.683792921101358
-0.9206735930793662,0.4190190093660452,-0.7050118557584089,0.5583269125217224,1.6725723868377034,0.0760053914124115,-0.05576907765770601,0.5387559924463692,3.6071301037219157
0.23855495377373917,0.30524312653135294,0.5873916998060122,0.4473939370689756,1.6637328321434735,-0.5012341077902127,1.41418728833109,-0.44854283652786137,3.944786998623254
1.3491351051134295,-2.1200872151201744,-0.7360636534685142,0.6098800471904189,-0.43145564455988483,-0.03992646337336377,-0.31093751635109385,0.794923113875559,2.21769399505372
0.2513166482381024,-1.0551076754804494,0.8227827808340025,0.6927690318488605,0.4802605014059249,1.1058330662947127,-0.9626510119189763,0.8614365256328049,2.944534764192982
-0.258008536197609,0.10908297034983186,0.3859700925688759,0.9280906109910811,-1.151997547579143,-1.770481137776078,-1.176644943900053,-0.5781134587156433,1.6957233144903279
-0.8369207037962799,0.33260751032419755,0.9331280723410693,1.0651719657143865,-0.5717460419560614,1.4526167454861794,-0.22272070077660705,-0.9163209190734197,3.5628166223972952
0.05022769916568044,0.09782717470792267,0.4360057752225798,0.392634115650968,0.14959795751878804,0.45358552350921844,0.8438395096417373,-1.5822231667464777,3.55203701070686
1.310191908080897,-2.1715714047604475,-0.00811320161175029,-0.2775442563155516,0.5457867135323555,1.2912738390158789,0.15808922532318442,0.4217800742508709,2.7709623326865613
0.5535695310677933,0.7588244161636093,0.6963228620803235,-0.20866837122046583,0.07957353494216583,-0.3126684457323573,0.2787998123854607,0.857898825291343,2.928452576169035
0.5001430331138838,-0.5615577463306254,-0.5530898169141323,1.1734422766324448,0.22668424849459717,-0.2725447213618092,0.6958638390937854,-0.3405987069098615,3.2642531257012934
1.8197717873125976,-1.471126405373518,0.3362778892475625,1.0567249112804185,-1.917348886010299,0.9668071042505444,-0.7370293611526971,0.7191686663554372,2.321281759946171
-1.9685042134380537,-1.60027110450371,-1.2172826922204794,-0.8927875154918841,-1.388542553831211,0.5136144642310962,0.15946250680412918,0.03471374875256186,1.7621855865565728
0.04600638673634095,-1.4362538649281178,0.6939232331912581,-1.730262730484345,-0.4876334209549628,1.3338857455005728,0.7165893397596517,2.497415126419854,2.3632844481243382
1.402009325919122,-0.7474556539582122,-0.2805020534116174,-0.10813899039141675,0.3973970234592343,1.1121006192213385,-1.4028661572078547,0.6852900847109679,2.5341464101540727
0.8378305352294807,-0.2569451251217815,0.30783237251388496,-1.397805478424297,-1.0560307999666676,1.2025765052252275,2.068226041505824,0.1799143695464168,3.1057030617514036
-0.14778031881747153,0.6012067489291149,-1.4438548161335418,-0.5505368494915835,0.0005279588565972928,-1.2207124259141586,-2.296180953137238,-0.5081401976473109,1.340797396876054
0.7285186435145362,0.8417807747840127,-1.0512200297825027,-0.22710600778092602,-0.4836171395554367,-0.1417575540275386,-2.5317693162508137,0.13556341641470915,1.653155080748241
-0.8567720938267928,1.197246923645228,-1.371673697230466,-0.2885486958757048,0.42548993324023027,-0.7837535211244283,-0.7094410024275466,1.7349365758368085,2.3761975396301267
2.4553001399108942,0.6748194921666038,-1.1227220215622986,0.1664522082130561,-0.04946370965243295,0.4924512640081491,0.3824097461840506,0.2891686439078181,3.3049232560017403
0.5820265670847269,-1.3671378064602457,0.8481742126666681,0.5522999376795232,0.46320629209912306,0.6256309336460009,-1.232523314768509,-0.6967718184295749,2.4826081760283305
0.3696421921980939,1.598647170504717,0.5609194479412387,0.6969544045107356,-0.25879606266710237,-0.33381948975600995,-0.29548031802916036,1.1731246375866413,3.069958647242513
-0.104009227724695,-0.6368764742064333,1.542547211374117,0.11447605881877927,-0.2818448493970999,-0.10852784256484785,-1.419877164270929,0.8268386307091143,2.11157914597902
-0.8837191406910628,-0.22011373125482853,0.06364906149651771,-1.4776124069194447,0.5907443355103258,0.2576008573981294,-0.3717790115234884,1.8921917608330678,2.2905390744765457