@RELATION 5430eeed85_spambase_small

@ATTRIBUTE word_freq_1 NUMERIC
@ATTRIBUTE word_freq_2 NUMERIC
@ATTRIBUTE word_freq_3 NUMERIC
@ATTRIBUTE word_freq_4 NUMERIC
@ATTRIBUTE word_freq_5 NUMERIC
@ATTRIBUTE word_freq_6 NUMERIC
@ATTRIBUTE word_freq_7 NUMERIC
@ATTRIBUTE word_freq_8 NUMERIC
@ATTRIBUTE word_freq_9 NUMERIC
@ATTRIBUTE word_freq_10 NUMERIC
@ATTRIBUTE word_freq_11 NUMERIC
@ATTRIBUTE word_freq_12 NUMERIC
@ATTRIBUTE word_freq_13 NUMERIC
@ATTRIBUTE word_freq_14 NUMERIC
@ATTRIBUTE word_freq_15 NUMERIC
@ATTRIBUTE word_freq_16 NUMERIC
@ATTRIBUTE word_freq_17 NUMERIC
@ATTRIBUTE word_freq_18 NUMERIC
@ATTRIBUTE word_freq_19 NUMERIC
@ATTRIBUTE word_freq_20 NUMERIC
@ATTRIBUTE word_freq_21 NUMERIC
@ATTRIBUTE word_freq_22 NUMERIC
@ATTRIBUTE word_freq_23 NUMERIC
@ATTRIBUTE word_freq_24 NUMERIC
@ATTRIBUTE word_freq_25 NUMERIC
@ATTRIBUTE word_freq_26 NUMERIC
@ATTRIBUTE word_freq_27 NUMERIC
@ATTRIBUTE word_freq_28 NUMERIC
@ATTRIBUTE word_freq_29 NUMERIC
@ATTRIBUTE word_freq_30 NUMERIC
@ATTRIBUTE is_spam NUMERIC

@DATA
0.19867585753008277,0.40285098392964147,-2.0436112506239663,-1.1688362646857025,-0.0505590995459988,0.9780718672970998,2.1123497094857537,-1.177611007811773,-0.15735595363593968,0.9188102789996455,-1.451503839436015,-4.168709981703156,-0.6626163640900193,2.877214031649216,-4.003757460436672,-0.27350098179996507,-0.15121702432822592,-1.1069757876207138,4.776893794953293,0.5175200991574272,1.2349014263224216,5.576113949661213,2.6545170585095637,0.03762632384501897,0.12641282943361754,-0.19841349730269142,3.9489319512556964,1.8731044246247803,1.2576783353659802,-2.0330007356700475,0.0
-1.634693518754396,1.459313211633066,-3.2727689789505496,-2.3679961677519916,3.1482790892208072,0.7357213110188878,-1.2450344592513576,-0.5954232028760423,1.1812664040705076,-1.4384717240825031,-4.340252800107731,-2.7363653600776967,-3.6472098258446146,-0.5410107972118525,-6.184816006644156,-0.3267973428992907,2.385969427354424,6.897874412626199,3.1680544469027527,-1.0404099418717416,-2.5093295924875214,7.440314262912619,-0.5467835488722026,0.9026602893824857,-0.43969995093580877,2.0299537855698357,8.53473725258516,0.03400925486107758,4.7796594539605755,-0.5197747896300302,1.0
-0.10213305824070133,-1.9406603877093587,-1.864295265540758,3.5692153591961606,5.458776267981853,1.1985326271211874,0.41971082035867624,1.0580223881158126,3.17489243502226,2.195389379968256,-1.4073712746948832,-1.7247812131762652,-4.507214140370786,0.5200138497074196,0.35269801852284544,-1.1766718290700633,1.6431902728703036,8.996757277408333,0.3666168336599126,0.9899490399685423,3.354201963634012,-3.3255281752562946,-2.525509555121803,0.7980598733523421,-0.4248990892028066,-1.8358193062161101,6.125895397934101,0.19163196206738903,1.2146217908568306,-1.2221760651510123,1.0
-2.139114124430851,4.611482117565928,-8.587201627618366,1.340174577315598,-0.1690804778987407,0.021729490989722763,2.209183966688679,-1.2405935848407343,-1.08796122461963,-1.6020069948890425,1.273275227788124,-3.2109508616468414,-1.6005809287041521,-1.3340404212604637,-1.935391466007972,1.1595962893754976,-2.95233733130092,9.151196213022315,0.010882035710825022,-0.14593743611330154,-3.3275748249028627,6.6941795245140225,5.394176378979296,-2.8323183184692535,-1.1715044081696178,-0.9547738835484956,-4.2219275045587334,0.02846344841915499,0.8965312638967222,1.3276154516053054,0.0
-0.15857009234621902,-0.25472726077892216,-7.614040326701028,3.096805359404416,6.066176403892875,-0.8981693831521145,-3.582062607487511,-1.2039381307977697,-0.23225784563158913,2.274370578872838,1.7232095392073212,0.6319348670515064,-3.5738930266906066,-0.20193511869422687,3.9106533434664295,-0.024832667703754394,3.0349873910003566,3.366576303301547,-0.05849629716748961,-0.4869763001880067,3.753191081982169,-5.196943101042418,1.4904639100173651,0.2608231676775328,-0.25197318715848965,-1.1303483148035203,3.6481569546449064,0.9997148032654405,1.1721905305108278,0.620148780415464,1.0
1.1841810163672148,3.517177069257333,-4.184828205602391,4.740452915220799,-0.5217470891199332,-1.2905227272912905,0.5979310342286077,-0.2929546157635447,0.41840004729592273,1.973509586891255,1.2544320287294015,6.713992819355636,2.5050149805015223,-2.049880938960051,11.758603152317397,-2.1308379973558758,2.3064737570036495,-0.9725945593696506,-0.4024655766121208,1.036157261138504,-0.08501452411176169,-5.21549207142193,0.7661492743407816,0.6196889216121123,0.41298056552504697,-0.5468200438070607,-1.4299513131090487,-2.6191522050533393,2.593525697236357,0.04109638193320572,1.0
1.0721967159384873,7.530900182760287,-22.051732693075568,1.6724707897619064,0.15207841050471838,0.5631984034673122,-0.29550228953308394,-0.39719096651343244,-0.6106806255980799,2.4566488637526325,0.9158377092658588,-0.9933683224893389,-0.03651903713832638,-2.1687928277550657,-1.9028218781069839,-1.2218070931634644,-7.728218723369392,13.067798213867633,-4.422875121253653,1.012224423453833,-1.2253732949500877,-1.373273469702178,9.854758894860057,1.772606668314208,-1.9297802318050268,2.516419949753941,-1.1983013224668129,1.5990545154786884,6.475973721049145,-1.681728535328834,0.0
0.7589443197586707,4.827528320831197,-3.2459154622539077,-4.38135612583073,-0.8537520013970952,1.0931229758819565,-1.0974395765349592,-1.056224040668033,-1.4601195194181686,1.641383330857639,1.586364902957191,0.9376039245817049,2.3371927333134725,-2.417001557711348,4.318455047690666,-0.4023826975243354,1.9960619814668918,-13.879353290648067,-0.1734383355194773,0.26669978950207235,-1.1738752528058263,-3.8053201081972783,3.81968205880176,-2.2287882660262497,0.02725563236057936,-0.9009069260901361,-2.139685518676725,-1.8034037342272606,-5.806119169351592,-0.3872493659789524,1.0
-0.154373534723929,0.16904824852467515,2.389490625549868,5.76073227606878,2.145560050163249,1.0075806827627332,-0.2689161946978014,-0.4822722102015164,2.8575850298849614,0.7019488935635558,-0.8725212659216743,1.2899263115327908,-2.0680639867083714,-2.016491304404279,3.247371285459144,1.0858213192287456,0.5548764233774099,4.586426875083117,0.4070038073044532,-0.8609115305933583,4.996870967449122,-3.2683153176368336,-3.5392025564075333,-1.4104272038242296,-0.10155820367255168,-3.4634423371274585,-1.0467652786181687,1.3380271627819205,-1.492593997911317,-1.9792058592406632,1.0
0.5052110240856904,0.10101706542575184,-4.224718679883262,2.3317142615410202,0.2747986290794664,0.4953798153284869,-0.8400600355418061,-0.4463320787671849,-1.7355224201997341,1.6923909731687612,-1.6037881026643106,0.399526748020949,-4.073813653564406,-2.8563245188962703,-2.471297366006285,-0.4045549175583959,-2.84483094708792,3.6475573844997213,0.5066063857642915,1.4063704050164938,-1.4960687274830473,2.5257428120927807,-0.8674101963316219,0.39311465605803403,0.6589541347810364,-0.5697166782713343,-1.0235803203417426,0.37140403442303066,-1.4999035025176564,-1.2254884792188265,1.0
-0.9026885938220728,1.349606074869918,1.5263075679019182,-1.224736966675175,-5.321386110223139,-0.026483628288828647,-0.5123173104590948,0.7548991665498829,-3.0933540491007703,-2.9321866939301624,-1.3649872243990742,-3.203791974057105,-0.6060629278184393,-2.5839753066797364,-5.529780047885538,-0.20931661662150006,0.2142023521361296,-3.5533664848137723,-1.5860750619210366,0.33917757913548424,-0.5078244194528572,8.569949643367446,1.1530839726437054,-2.2694978644974095,0.4901815174907414,1.1216589059570483,-7.871032373353212,-1.2447668741691826,-0.9230979531789922,-1.6563805271410257,0.0
-0.27992454232200725,0.21354520666341947,0.16044446910852164,-0.6675932053386519,2.3175428714660455,0.717079036996164,0.9297402248111573,1.1230392976314654,-0.7439990932671929,4.458589248584847,-2.139253089936314,-1.08312998266477,2.473442152363395,1.9515109193888973,1.1059002928092,-0.23595548602317848,1.3466191935942846,-8.381363201253672,2.6139384687445126,-0.49102969807798746,-1.8434296693408645,-1.561856391794387,0.06468140094504471,0.17777813858498556,-0.5375769410007442,0.28543421033303895,3.8728441414782355,-1.2826294319269402,-3.417057971569161,-0.40197097205696275,1.0
0.029268983904826695,0.8017764045579885,0.7406131698313062,2.861729857928942,1.213644856820934,0.14115541469119494,-1.3370751078878382,-0.6775924297784516,0.17332217548509088,-0.18872532332830616,-1.7413203883766672,-1.0301910190504031,0.6217426083025184,1.3159060883860354,-8.751646775465277,-1.3854093918181294,-4.104886062006797,3.3471525832315003,1.2107431349756081,0.4313450998777634,0.3862532753577841,3.8367240417088557,-1.8872328640412466,2.098732354050425,0.31445082229065685,3.8354328556362707,-0.006141076459499328,0.3957354624650479,1.2226620410858073,-0.2564025555322961,1.0
-0.18386929981662062,2.2958836616169216,-6.276217570506794,2.468344951341532,0.8261034467377962,0.47135249082772884,0.0007086276805219297,0.8946771424381318,0.32165150948532695,4.4327739967930775,0.072963265221611,1.6398520269983745,-0.9322179691642247,-1.527629870029335,6.491821471947542,-0.2753899588180738,1.511124702950001,2.2495518163911794,-0.2472453823257148,0.18823327270113394,-0.8761705866448829,-1.028161073115176,-1.9248942123200203,-0.367317646668518,2.145036420768707,-0.34175226273574255,3.747036738054062,0.969548066889097,3.956708232145336,0.38916981022344826,0.0
0.781173856610691,-3.292235553608226,3.125172219264018,1.24670625456127,0.7841184792229127,-0.5899776907526124,1.0232009733479865,-0.8119741522934762,0.022934690091764742,-3.5450783300801385,-0.6910892912101476,0.3217143482606899,-0.4553871866803869,3.64246473266895,-4.208052863808342,-1.264767283185519,-3.975528815088513,13.41318125816367,-0.1593534316520444,-0.9663840692682004,-3.0089005186373465,1.6516933881685045,-2.0035117215409834,0.6611025357349691,0.2506924160227523,-4.0957628970827535,-0.10470551533254052,1.1842534160314664,-1.289495204219619,0.26117680697450923,0.0
-1.6237385821172297,-0.08792633763488111,7.948186674879033,-0.8976589420163532,-1.5338447756044777,0.6420255015353197,-1.0337348667080686,0.38427883498595106,1.5041351863244348,-1.5907655680569008,3.06125681494769,-0.5795047720487412,1.4155231657155758,-1.1259492257424213,-1.003178094781533,0.07305819214956248,0.4139242009850077,-7.616473572614002,-1.8905699726330756,-0.36991046945714723,0.07986342970669802,-1.1555012726257843,-1.4696099105430918,-0.6274428354765009,-0.21768565950112867,3.822136244745358,-5.4435530859352195,-0.2850308482748619,-3.0814194155908745,0.5674887211299786,0.0
0.40672746946111393,-0.8629410664462506,-8.248056167280527,-1.7335105425211257,3.7089850035498997,1.9968502186888513,-0.11850872171491235,-0.0019056329887571601,-3.2958270301508374,-1.1045211959211771,-3.116075941892795,-1.2003335428025463,0.8991127593214385,2.639779705922427,-5.527144840615193,1.5885072943536291,-3.751118266521614,13.28958236844312,-1.525481459297791,-0.9618848622059493,-2.8612560639952367,2.0076228544869785,1.808674971511293,-0.08812384100669465,-0.7898843091669199,-2.800780358957071,4.346113235979664,0.03486688277914605,3.0143058609551,0.13470746810280448,0.0
0.03372310292137513,6.535002491728947,-5.774954423344885,3.765277629015711,-1.6059016663814205,-0.09441826213604765,0.24540406120581154,-0.6572117082110901,1.4279353601766007,-0.9308090061884504,2.986184300871704,-1.630572612711344,1.3145066471029676,-1.7631292548300566,1.4364629604146835,0.7723145844407059,-1.2513157737491514,2.653421569939793,-2.404152630601849,0.3028832767193024,1.7860253066670118,0.43650240779170385,5.185251494952486,-0.13552626897887088,-1.296833847167973,1.1923162761426804,-7.6820386924320765,-0.7657453187062563,0.8489095728150602,0.39844804551200075,0.0
0.6517110765969125,2.4234286689422353,-2.8951229135712415,-3.9727194130924337,1.1486277013498642,1.0848277401561082,-0.9460298263509611,1.8103275907226957,2.685150728839063,-4.76665401225267,-0.8779497826124834,1.2237013111083308,-4.431975130960216,-3.8511673604398684,-2.4932493616341613,-0.6851159796427303,2.143318550362963,8.196635171957304,-2.5569673000076136,-0.08560804892812099,-3.421346787149959,-0.1573865840029475,0.6526975724200677,0.34669762850166363,0.622932269811964,1.0635195840456222,2.8790767429196764,0.6589353548536838,1.6378983612989977,0.37703383782801303,1.0
0.8227173745004389,2.438654980262301,-1.8082395580693609,-2.0767100811605896,3.5920764651363952,-1.0795504116394294,-0.5242827429098788,-2.0796332822470394,1.7029029947413457,-0.744940728781138,0.21577691420104972,-0.04469326352113012,-4.862363482346774,-2.3931582767806896,-2.3073243347798185,1.3573404667461746,3.473177293248442,-3.173824467883658,2.395178231743574,1.2243816701175614,1.3123862715508423,-0.7167400134330721,-0.07004382339161286,0.2769945204271254,0.6098290776634929,0.7951501521434001,4.284229618584801,0.6772085213501834,-2.3501528001594205,1.1208484436478086,1.0
-1.376614298322683,0.10687128478702568,-4.526212270633225,1.1500340388304027,0.4758143794726547,-0.6614927439281383,-0.44494763046216945,-0.9667329181444497,-3.310327915353855,-0.5171850484112066,-1.7943820493439417,-2.310661617179906,1.3654472745950814,1.8543894608035045,-2.808000521163319,0.37788326758323426,-2.024426261509027,7.420264781650259,0.28009845873763983,-1.4505497732487043,-0.7095417446393595,6.145672478995413,1.2005730134147967,-0.4319993781708099,-0.25415435266984954,-2.0542576697811676,-0.3464841341920812,1.20893213970257,3.267743450424592,0.3809528356934129,0.0
1.3686296220971284,-0.07148993692720618,3.546187392508186,-0.9742487436584777,-0.7216728665484187,-0.5536951531354725,1.0909666745194195,1.4041659401003963,3.593896354700134,3.5382668319488997,-2.5373719872397347,-0.8744807337187144,-2.4546526156459247,0.4902729808088728,-5.700664506490184,0.2560798786660208,1.0638817134724126,-7.312133594105804,-1.3994563697168467,-0.9990062325598563,3.7598802396802635,-6.187906233747874,-5.005360203547535,-1.1488514099292881,-0.8814249061673531,1.962644253790494,4.652049070801524,-0.9920435607771338,-3.9260202440600978,-2.060443037409089,1.0
0.5084855561473737,0.29325236720682724,-0.7980475950325525,2.8547152988280775,-0.4809027412814044,-1.2620490232163346,0.9014965331427323,1.0473517424530512,0.38440412318430084,0.9763123807302678,-3.576500855289601,2.6998315515622213,1.84921631269791,-3.0356278304526563,6.291797953520174,0.9886544793665183,3.5982810592658474,-1.2362907622507515,-3.9088478788286602,-0.1887101284925862,2.414638383259658,-6.240120271300743,0.8619010193550443,0.4910660434453565,-1.8261858494167107,-0.7122249684094443,-2.5140149155256606,0.013981815969324855,0.44907093896899597,0.23248661841936719,1.0
0.5970725610113586,0.34855041680738974,-5.0543856581333975,0.3879759419792521,-2.6959091231213086,-0.11676399778157646,-0.3248836219917387,-1.5955672462222275,-2.7537584520691523,5.615438511847034,1.976999316984208,-2.955206147488601,-1.7548122554874923,1.1139297357808045,-6.078688942373752,-0.5913014466965381,-5.409453491482798,-8.084733041805174,0.5736937663531809,-1.1364499386607045,1.9344577684525994,1.0461600737612002,0.7754803832404001,-1.579627452555176,-0.314414783366775,2.328463734463568,-1.804526523833008,0.03438182225793511,-2.9021986887238933,-1.2421790697284936,1.0
-0.8737946212411899,0.8524042049719636,-4.357698231004509,0.8551570145459859,3.250760486254606,-1.6134158526524858,0.1327878150770647,0.029866923257825532,2.4235321032876187,0.48774316929362305,0.13983056710880715,0.7863042640973241,-2.1564138499325765,-2.6389198477230367,2.4478314476891705,2.05727186499401,0.6924400014372651,8.197939491120314,-4.037308508073527,0.9626802348862991,5.7423967741828585,-6.125474162739158,-2.7677327296145284,0.9165681806443017,-0.4692458376626558,-2.5952990576438633,3.2148774418239405,-0.2571930446064312,3.562225116854321,-0.8419937797616007,1.0
-0.9797619477439743,2.1425651675511883,4.004781428634211,0.12318220933541213,-1.1604381217462238,-1.0460790158532527,0.7779723634666434,-0.7703260652176507,2.7943941610388645,-0.2334522659999867,-0.7094768839104454,2.8692573850453256,-0.6736380050899935,1.3650699359399647,-1.55574816945212,-0.05324257008920245,1.8001734400168252,-5.941842082387797,4.094462875733301,-0.3962103422811035,0.2178114316302595,-0.7734892808673494,-2.161249288380677,0.6837095369080293,0.8781824149703045,1.2284061812930096,3.5382141414524124,-0.6342131936855273,-2.173789969989195,-3.0711509878990277,1.0
1.1222035676977153,-3.660504862036041,0.9037497870154965,-2.1887039428601156,4.670271491209224,-0.616830877122271,0.3383840268111418,1.108042858383234,2.26909314342919,0.20083474844382243,1.8925916022047091,-0.12331962361113524,2.3589449785974335,0.713097366177311,9.037139467545552,-0.14943148601108933,0.508923594306838,2.345479266759974,0.8797689553578527,0.3697734371150561,-2.883507086388459,-6.2625095276129175,5.314633391291756,0.5759044369323361,0.42559425346279633,-1.019594237423711,2.7233431917105646,-0.406242448869528,-0.2568972096226896,-0.6233506802902617,0.0
-0.5554447928650015,0.7221092990956095,-9.9585043365202,0.9174095947152926,4.4881129479307145,-0.3266627584501871,0.12953963920604702,1.2278034334513466,-3.5871058531811606,4.6412672574502665,1.6879876778726293,1.1160432380293928,-0.37012773521573983,1.708424262430412,2.903168706317118,0.2848252786236364,1.4059400814995493,-3.660760743885776,2.075236875625975,0.02186574218222265,1.5833446190831748,-2.2030675615266584,1.9704333899269422,0.057117840551174894,-0.31134788711269756,0.28611006520767135,5.253738560931257,-0.17318383939617413,2.0863624578154636,0.7873225056465234,1.0
-3.254478941297708,1.6474044954497908,-2.2075846227679383,-0.012171504740074335,0.7477172122821619,-0.4918786920496538,1.5665091267059081,-1.01437495598195,-1.2082779843026163,1.142713509091741,-4.653326802985937,-1.35690334728447,-0.7200903160611445,-2.196546939388493,-2.416563500635525,-1.7984139213578147,0.19934308726884287,-0.7523176126158545,0.15857053071918137,1.1954527117529803,-2.3327283411469013,1.748169202532659,0.822101111387024,-0.9039121651626768,0.8784535729984396,-1.136045840484892,-0.39141422709608104,-0.5289225023853102,-3.6436431659522794,-1.5538930044475427,1.0
1.0691442639359137,-0.8110820532928616,1.0393222092113261,0.8950393682265823,0.7038526142005005,-1.3664476268940633,-0.11471712412457906,0.08697021757535815,3.617878203272261,2.1037295922386017,-0.34640759686867806,-0.5022393489353368,1.077430127040279,1.1058631760048467,6.144228940557364,-1.9332900716655732,-2.3554469115768657,10.888159340581053,-2.600277716300427,-0.7734374918676599,-5.267465578077324,-4.535964610239165,-2.09970178746296,-1.722343356869786,0.12709274884279767,-5.11913370748192,1.7289781040417953,1.523525312229039,-1.896967875874565,0.13218646951488633,0.0
-0.2760110617164809,-0.5947513078151643,-4.135536473502162,-1.3829084690870657,1.745214602575396,-0.746927693372195,0.1350531658122264,-1.1351045212157118,-5.787077499437277,3.4523522388501635,4.109571041888729,-1.3933596070832577,0.2299413330939326,2.4476453759523054,-8.970573303124269,-0.3515368762486047,-2.9943469247897054,-16.40079221331615,2.671105318231696,-0.3390783736268482,5.358074107581551,0.7928466748826084,1.787172836678538,-0.7061286121861053,0.23286061196457572,6.301205553687921,-0.48467943982602535,-0.8244853056535114,-1.6976821650222949,-0.6713242302684823,1.0
0.8639466372698691,-3.958112029848734,7.415938684698885,-0.11378088490102456,0.38220634394461306,-0.817928009687607,-0.3734296950161807,-0.4613722147467896,4.215319683090068,1.370005207158576,0.4148378055295492,-1.3837577184018592,2.1057167546228746,0.9137854469795715,8.577498297212381,-0.6538799136521003,0.03496849848216077,0.7469604833728143,1.9644644518874985,-0.011723503209193423,-2.812426048296248,-3.0981155708940347,1.3061624170736277,-0.5338549293920343,0.07890283114456365,-1.7174103712512507,0.8973459227203663,0.5204878447742322,-1.5901830565188724,-0.460832339796763,0.0
-0.30867740967478285,0.38410924380003664,-8.290608063509321,2.87032655732065,1.314795784291607,-0.5032436553016811,1.2668472405671247,-0.4089418892412716,-0.11540314280320962,1.3034246418747597,-0.9881053300046722,-0.47669407376333706,-2.4227887643798227,-0.9217711184116432,-3.721182636092428,-2.8529435035996533,-5.29771071640613,9.452849200999646,-1.8329260568806895,1.544984795382366,0.5209340273454011,-1.6317021252807469,2.9971517285559273,1.0475136370876286,0.37448557759128565,0.4163396494355953,-0.6344059644830992,-0.3651826162937345,0.9933525165777433,0.517230050277387,1.0
0.7302838193069643,-5.702252578926114,3.8845009314006442,-5.7642988425166095,4.576587196918397,-0.39354631987318744,-0.3427106214798979,-2.392608148197263,-8.731171982743081,-0.01307869754440083,1.0234051889828888,-0.7175787706949152,3.0394686230457086,-1.5096304355008963,-3.275599094141596,1.0699134354109718,-2.3643339492972375,-17.59097849676148,5.799831617832955,0.24100025339724565,0.5991011590683655,5.008254236965577,2.507549279792496,0.6846612305437452,1.216459777899117,2.362195511770136,-2.094003291705911,-0.04606140412446539,-4.189917902585543,0.04056454809536032,1.0
0.16343176058713194,-3.5217760686199773,-0.02009678234710722,-0.7583970138862306,0.5168480158212534,-0.4473732498412154,-2.3882924507511794,0.008588138508182646,2.1094033077339476,1.0339898001298167,3.1946036713830024,-1.6067142554270373,1.9415611754476059,-2.8463942397449618,2.0594257152779796,0.7255161387753777,-8.272342639349729,9.308242991575439,-5.757311733125528,0.7454472820569326,-1.3136321620820002,-3.9766490230182696,0.6237491938412807,-0.7273212215022773,-1.5870337615259915,2.789360569372046,-3.3918791835055355,1.3854863405180886,3.8788782987163763,0.038498485695272235,0.0
-1.0396339428247796,-2.166365778533012,-1.1087058829027574,0.04485800243686611,1.7483894082610008,-0.7673808064423085,0.9110273089999276,-0.3863044984779063,-3.51386174576821,0.7764789086874988,-1.4163618357824055,-1.6870151470503227,-2.097690870796457,-1.6988079242099015,-7.102881080895827,-0.456104849749766,-2.4365386127742825,-3.297304507663706,1.0911483693879689,0.42108499021980617,2.029971579299791,3.5840048539571066,-0.20263640534672067,-0.07777270026441621,-0.7744616439243102,2.728857309756649,-1.0968817231183545,2.3919199321195173,-0.7972069640174286,0.03647217665420908,1.0
-0.36278632753417206,1.374959597182218,0.7803679170260106,1.3611674360300112,-3.0785680171985055,1.1694082321564618,0.734000384813558,0.2888649470196864,3.890235055973343,1.8687948272596004,0.16019519188053555,3.2408046196920584,-3.2698071991994024,3.2485099937037356,-3.7273572615360173,0.46245398612712674,1.742805864646487,-4.927224636156264,0.6468706872438966,-0.8687763509936559,3.240581007086505,-6.1167416102290915,-3.144486196819099,-0.6584099351183408,0.461230493586657,2.286136893524542,5.067893824622951,-0.7650623329109258,-1.3520129861394081,-0.6050667881147398,1.0
2.3517718389720548,-2.26024549092269,1.023942094778395,-2.215326492319918,-0.20084978612148718,-0.07497925907755129,0.8515763202461846,-0.025347274750424368,-0.1940498402098808,2.1992643029549948,-3.653869615955628,2.295497532576643,-0.4006278573200521,-1.8336078226141177,-0.9894881564189311,0.5488358830184623,2.0458547733541383,-10.76566120741554,-2.358828295690877,-0.5520436151630664,-0.7670599198075476,-8.312913489745593,1.73711905438825,-2.0194061287908016,-0.16228244716741405,3.503056112478992,0.7591327988482551,-0.5908281109074761,-5.158009207389757,0.3738371450016698,0.0
0.4291781198749986,-3.522216471273186,7.34271387566424,4.505365411333145,0.6822836268973917,-1.8015029965080767,0.28588696725679236,-0.520438985392111,1.8533447600680621,3.3377602349883877,-4.327429101863165,0.5720835169507548,5.937350394508116,-2.3341283980528953,10.065030333006757,-1.9062723220007058,0.6457483748861594,0.9045994451569118,-3.5203388009798466,0.8316375589515773,3.531649278878916,-6.231040933450639,-3.8807069236950045,-0.6642043439462315,1.5080122737897765,-3.1028055643918853,-2.771033181980638,-0.014686414391873468,0.9347220695857007,-0.22163488657080457,1.0
1.97281075471809,-1.6945013442992978,2.0917026212395577,-4.234702359000746,3.9108191390960076,0.5416456878505924,1.467071635043315,-0.35417875553570094,1.7463975811499899,-2.748652718363149,-1.9215415908147273,2.441059968640939,3.4431678307655966,-1.7923100178748665,1.452217331067592,-1.2612118518523092,-1.6944935980604388,2.0548666748597846,-0.4428245454852471,0.4151766023230718,-2.4616043051563654,-5.327996196447989,3.0885881663010735,1.3466434314344815,1.3585828696178281,1.1188153865456298,2.4890604314751847,-1.1435594597655003,-0.06964905089126283,1.0338907890683908,0.0
0.7745804977317415,2.7198925603884634,-1.9954305293119514,-1.6573842764157851,-1.0604791538641987,-1.7768256615760247,-0.5877659049711595,0.21081507795919088,-0.08296282664555676,1.468030701103123,2.7852018442803086,-1.0566837339073936,-1.9100493112849874,-2.2228309606171184,2.482282458219479,-0.966379093792069,-0.0004964695672011743,-2.698425008081462,-0.3435944582405388,0.17911401136846739,-2.827010567900271,1.127313327260656,-0.40227592034762827,-1.111778299134442,-1.2503135829593135,-1.3096924196890232,-1.5756669120432982,-0.7295630157376162,-2.9517417310456615,-0.8716021981573001,1.0
-0.9811037139497356,0.7123463153338967,-1.2658134852052545,-0.8750650393856438,2.723748494227573,0.5215025255698525,1.293259276930151,0.055262595879017724,2.6350834046577507,-0.1938804431036556,-2.8334271741318964,-1.033404002663365,-1.072401099999867,-2.1296397310028556,1.6585999285674424,-1.360054654417601,1.6705843701786556,5.711959948143574,-0.0035642151147787793,-0.8303005319842076,1.3195311810519899,-0.7882777147151786,-0.5676745714874344,-0.17233015672456595,-1.630557202247304,-1.8080653891743728,4.51351755732866,-0.7069047791375971,2.4272897794657347,1.3443182079872078,1.0
-1.733469498036188,2.103783191662369,-0.6943657899474374,3.1021880423079393,-0.45074325025844586,0.08538861013495828,-0.42410381558409904,0.6512750441186885,1.2641308507755733,0.1591310482870829,-0.5579976095560628,3.039035587078856,1.3219509935284819,-2.3144908107056548,5.418508647760693,2.0544884403285804,0.15109296486940405,2.7079531188930157,-0.8110314751058947,0.22149330713283266,4.083093209607546,-2.7538858911852833,-1.7519424638559689,1.7423760847025391,1.5882941520549443,-2.9731514084084925,-1.3036371820011057,1.5436977609924138,2.0698693624590714,0.08643018908754228,1.0
-1.0902350801857508,2.83901457645291,-1.9695818487243162,-0.010746508114973907,2.2162574368085846,-1.62246533089256,0.4106745854198008,1.880803518793316,0.032869813511514856,-3.7305817393404075,-4.457389683553737,0.27986576513073524,-1.0821374010336657,-3.1813247123201305,-2.843205359130489,-2.1293270511692226,1.8149222069980526,5.194090918049526,0.1710483102910061,-0.14224842863978576,-2.6162725107796505,3.0227790153944203,2.248062924626776,-0.9137933515835214,-2.2303204247730286,-0.245281686806617,-0.6373604934542387,0.061028583556320855,-0.8648350495170162,1.5147146124944029,1.0
-0.7332686838041768,-0.22827912069570977,3.466022356092475,-0.5385774281779012,0.36612914136971264,0.4186480208169058,-0.5205941776804528,-2.092533205749156,6.462133097960562,6.445153049568176,1.0285671388761801,0.36541732047256015,-0.5464536633372543,-2.3609992880795527,7.955117203883793,1.454656478829222,-2.679402606234834,-4.94202505994915,3.30976025268377,-0.30950076200379456,-0.9928081405645055,-6.380252001240955,-1.8198515584189843,-0.0668909415947264,-0.1013249162298958,0.2816143124016175,5.065370633262144,-1.5053020610083434,-2.474522509552739,-0.8845030730600199,0.0
-1.4565879732593636,0.27377488808184147,1.6601699525912899,4.52285569140903,1.0836919939021028,-1.202803194645333,-0.35127203711064553,1.7707056507337993,0.4950611653200643,-1.2778796042403506,1.7439792171591675,-1.6744996636966445,1.5513384152182002,0.5492187846313561,2.8224859413296404,-1.1056255017144403,-1.2550528122413354,8.347897842111047,-1.6247392589199028,1.8658445522852707,-1.339161211017717,1.5915341633612885,-0.007154232940454586,0.6622033339461874,0.6726257608719525,-2.335358368795198,-5.733432160332317,-1.7181374903760358,-0.5837219874629112,-1.6199421316642872,0.0
0.4861685979665005,1.6089731103274056,-2.6499737394961054,1.1535970998582938,-1.685540490923916,0.31978999455603274,-0.6181731623472644,-0.8844928186606991,-3.895847932591749,-1.8800034423169958,-0.4196903426394727,-0.04389120142649683,0.866820030946222,0.674248320831998,-3.9176376999745104,0.6868752232028936,-2.0648452939636583,-1.0332822626434337,1.6195654343679862,-0.3252989243235641,-1.2234904658195733,5.234370161638002,3.5613221487322995,-1.4435570341837254,-0.3398450418443653,-0.44677602953294926,-5.1488282336318525,1.1603481809669742,-1.9967656339639923,1.619813234242322,0.0
0.5146715543882296,1.7512571418941638,-10.225560044237227,3.942982070987232,0.29203512173001445,-1.6111694631742193,-1.0931075606001215,0.9681026637765426,-3.6836225586908125,3.6907340154796913,2.2915175795246685,2.087675486194567,-1.3626549649265955,0.09470712389571534,4.408923585370812,0.3751690140584689,-0.04029783267542042,-2.1850415774645073,0.7352661168669081,-0.3768376794965605,3.208208550509506,-2.0575904347882603,3.1643398472139914,2.114414834308793,0.3610251451427553,-1.935518384017745,-1.4132630973745983,0.3609860825370816,0.4265406113608261,1.1131782933007082,1.0
1.421582856672674,1.7747652287143634,-3.8542833983505878,-1.6018534786177518,0.03936110317343955,-0.9270500919253337,-2.8843243671782015,0.560652519578775,-0.9864592006825689,1.1757922432136856,0.2795939864606203,-1.2408238761628474,0.3753529907028976,-0.42724525821284554,-2.353580890695262,-0.31022100724973456,-2.91836405646652,-2.0264621350928307,0.8815323815770713,0.01682506628781065,-1.3880371097556077,1.1593814721557951,2.741173803443262,-1.0859225292896342,-0.5038392538876806,0.9452704529998772,-0.26256019976573647,-1.6052170156959435,-1.2420873875854803,-0.4630639442340176,1.0
-1.2737174007254495,-3.720976236113812,2.444791740989836,-1.9370775815569006,1.1602049753260415,-2.023653978012167,-0.48553403863949773,1.1789483992366676,4.484109127128171,5.26003438686161,-1.1609331954186448,-3.0778494659662536,2.25563101796196,0.631289546200969,9.508540104812706,-0.31916991460259436,-2.930531390824945,4.575559187647897,0.9914114661373437,0.3350212958021024,-3.9949950670828995,-4.501043592189933,0.6473766521118762,0.20045150434031708,-0.21250136469116512,-4.016827436535993,5.315321907943331,0.5967586463018494,-0.5306087734607385,-0.4917378487907272,1.0
-1.2703794712084044,3.2504733575433042,-8.632170373526135,-3.2541874648829374,2.9064856398619705,-1.9856633558035592,-1.2498893112390432,0.7405453658744364,1.671524909732979,-0.030106387833452652,-0.15057161795568574,-3.232603118200921,-6.802032383883917,-1.7421291958873768,-7.520303932095144,-0.3895427945831535,-1.0001860787387162,6.726201320226127,-0.5443091489854066,-0.43893397234400294,2.97293103778358,0.2952715866506872,-0.28206794825345993,0.9399808180928202,-0.3257304552504472,-1.5544550549267901,6.150533948953079,0.12946193512519885,0.36770881976325587,-1.9020696485464397,1.0
-0.8757235854998543,-4.352252099731102,7.022989174535871,0.41629483865427663,-0.8199583785341533,1.8316222846583865,0.02245041227766096,-1.4770148628144282,2.0402730885942297,2.1676412112561376,-0.9729945726302465,-4.543871800331974,3.055675891279551,0.6926013542917207,5.698575945325977,-0.6698033580758616,-3.0555034879161713,3.0363368611874635,2.6449083594767875,1.1484459565337237,-1.840924771719478,3.3898062188951896,0.14616899049366716,-0.7332650934863538,1.7298853986834446,-2.7768317945278103,-0.7472235361046422,-1.1638577177598246,0.5112944676373283,-1.2534576132251245,0.0
-0.002212669470562166,2.582852434769073,-6.593225994989408,-1.604704040973038,0.06048988698281177,0.43866796255825996,1.7275520426206816,0.33693433014405205,-4.215873262901154,4.885970035021071,-3.8900832049076204,-3.6473624619349314,0.6961463172119924,-1.5718480768946959,-5.5561290570453385,-0.03631593341592001,-1.0699689589537775,-12.267543516070834,0.4112617502190328,1.5680050310433193,1.5421075583326007,0.9722866842566121,3.600603888478609,1.7015660700528568,1.2571027806551944,1.3674796496556298,-1.1072849324926917,-1.266896712926594,-4.743872652699762,-0.9703839817512533,1.0
1.4184025460365826,-0.6238031184037638,6.729050744749701,1.4794257631903949,0.8263187073442948,-0.24096058285591823,-0.05926802260034109,0.12157900053938211,-0.5066049446399994,-5.9919691051762065,-3.0203873149358773,0.866862156864719,-1.6850664501257384,-3.330415365894648,-3.634092076196352,0.4799969943350377,0.5087579100094464,7.597591499381813,0.8558764960982923,-0.3384357848148192,-3.822160133212653,7.828483384923115,-3.3029744092996287,1.2179271419745152,-0.1397989190107496,-0.6385247140822641,-3.9740945665168566,1.6625550811140222,-0.9436891158181957,0.6961362419695681,1.0
0.6119926319144883,4.391483695463539,-13.553826488719173,-4.200627633572891,1.514225963880122,-0.5034623439010585,-0.7490792166512826,-0.675087578960491,-0.9008899440471476,1.2731878875478524,-2.290389920028227,-2.2223073100601516,-5.568094114727652,-2.12009199063521,-6.9153705444012346,-0.4008739562549743,-0.2950928520699003,4.443206281821847,-1.2011929518606097,-1.7256742533751028,0.057953783671698234,1.2798682723199388,2.1344083762296715,-0.8155027018702209,-0.5469860834554389,-0.27460055965087116,6.669976615871449,-1.527041060820457,1.7674223933705397,-1.974670894587108,1.0
-1.375225117962206,0.9874945019249111,5.90269302341202,-3.378521464159829,-3.0751007660136396,-1.2584148305649208,0.21757953634296223,-0.26130011056889496,0.17036828600196974,-3.77885818902065,-0.4573546600390932,-4.4543009543991925,3.0568964860793906,-5.001019241947654,0.7865238514910267,0.9605779037089842,-0.8854717814792865,0.25015247299129406,-2.691146108680255,-0.17898344139169084,-4.02436207706709,7.317551533404734,1.625802888051931,-1.2386461271140756,-0.7888492497413011,1.1266385959291352,-8.33244885368035,1.0823538731623088,0.2584433821370169,-0.1586511834690122,0.0
-0.5066028082758148,1.5528212749247605,-6.074646908420443,-0.3684653550048035,0.8923976401375057,0.8586885114656261,-0.4987651871936316,0.07775991999108028,1.3068712194962333,2.6235589142156197,-0.2686047205634001,-0.0718187492853265,-2.0879330846431987,1.8281293172483442,-0.48996784705869023,0.3195926497950045,0.0065262684150309,3.0564007512499463,0.1437745710561542,-0.849329485829408,-0.7569393118517288,-2.6360270270347606,0.30138373674824126,-0.3944726934280214,0.22223563663052404,-0.7486551918561504,5.785967905924196,0.00593816941514957,0.6389822589258978,-0.28475862849001854,0.0
0.6625625498799194,4.26882671037441,-10.732758004177223,0.5685113435072953,2.422921990573037,-1.0935322864596726,1.7369429430193026,0.825954155620064,-0.8559796355150849,1.9878664026498885,4.931889742885029,0.8029495884245657,-2.775300286365383,0.7689021381580179,-5.4682183548059164,0.5345436134561904,-4.298077858502794,2.2569994462215797,-0.9038099655369187,0.1413051241048105,-0.7996002230394081,-1.522175662217302,1.1376328484204017,-0.3413098462098483,0.7616721862950018,3.8578145828922326,1.660106931839445,-1.1252648898076596,0.7104606969094487,-0.8344287335176476,0.0
-0.18373327476680484,4.191521503700983,-0.9390812087911363,-0.7570376954941485,1.721126875554586,-0.0353900781738251,-0.09785077021512495,0.31299630453482846,0.5815310329751942,-3.2438596551552914,6.602021022109447,5.490100705350601,2.2588480876392403,0.2503621524912405,2.439739265058736,-0.6748784964301175,-2.3882844183318968,-3.046168763861378,1.7110409389520425,-1.0979885674197973,-0.26512637963563046,-4.55916530858742,2.5249861324189755,-1.989815518799147,-2.4978471195672807,0.0329317710346988,-2.7435190549258706,2.091576369778548,-3.0499864668474332,-2.563953967979889,0.0
1.0325568123535973,-1.9259229571054315,-1.8221342954355189,-5.068829151090295,-0.45650731919722287,0.7316011021584401,-0.7886719311513626,0.20294405031011112,0.9411427269565542,1.6245835901672456,-2.713666531699358,-0.48816465766963013,0.6047543246737649,4.977736108678483,-6.208119503675055,0.7319099061723667,-1.4145220954718036,-1.2376047515636996,-0.5795121037395543,1.5639001448995327,1.8673615483167056,-5.550993165527178,-0.108806187190571,0.9312695959955741,-0.9236069626087919,-0.6368878987223546,8.730489024865054,-1.2580246952287855,-0.04319965259386316,-1.1740741316089747,0.0
-0.15229797849414675,1.7656225904599934,-7.514295962472051,1.7056464339812245,-0.10940005669217134,0.0829205593095799,0.5332736027835934,-0.7058790140602151,0.12606514585337614,4.029345241655012,0.609207709862772,-1.0927347428368746,-1.9449884215215842,-0.1691933938222151,-2.049477806827418,-1.0324789678948723,-4.875820444976236,2.4971399596184156,0.976521462042435,-0.6406836367077731,0.5108090603898314,0.1811182167319106,1.4527544139492867,1.4822994861529117,0.7376259301305024,0.8792045509830919,1.5278757699033734,0.3596491578821158,0.9915595930949928,0.04481819710016778,1.0
-1.5939637298232994,0.6315427594249368,2.0519382554163856,2.9120213776802126,0.28380765032369515,-0.0626158186129225,-1.6757917834365006,0.494180214280795,-1.2226989641464918,0.4404065972993918,0.48470385209037525,2.5067134885245985,0.677115359684672,-0.45599798488338716,2.7140048977324756,0.18920330347423522,0.3177843351610705,-4.750341087045591,3.6983090137017474,-0.21032199550385486,2.2424338007948075,1.0026170491223931,-1.1385930860352458,-0.4741810570781488,0.04278290212432007,-1.686176881869029,-1.8823244704660704,0.6667060608586094,-1.8865421837594845,-2.4715599083142608,1.0
0.5841314848188115,-0.7754037240463941,6.173085385042177,-1.303653721433496,0.21067872388230235,-1.6833446945728323,-0.414372661705184,-0.49339074970988994,3.272124091795773,0.7782642774614001,-2.3471631636210075,-0.3452330909092107,2.695712409862408,0.06786884971490537,1.3851565174272502,-0.23815293504385798,-0.7305867200350382,-3.5693422148534673,2.4369568806646047,0.6138663461407804,-1.2634083431138285,-1.7472118459792174,0.041277036481401796,-0.31520292616347895,-0.45310758937508794,0.6145581862565734,2.008376393015581,0.8686630423557151,-2.068329206719743,-0.7445605403930292,0.0
1.1903520289564116,0.060093688707716364,5.321922555539058,-2.175886558501895,-1.6721536273977455,-1.4471735937410677,-0.5334317466174908,-0.22873502625875175,-2.6640929484868225,-3.4851894771056693,0.16468878698810596,3.26668138569321,-0.007981068383086543,-0.6972735760589934,-4.723517850476041,-0.3808130321457192,0.9444605996891153,-9.267658946247026,0.22648888424366498,1.5721554799027153,-0.044118181743493357,0.08241156532363686,-1.7374831329497131,1.100663944921611,0.7131723652486122,0.3998855294825615,-3.984559233959887,-1.3905948609320575,-5.9061292653937825,1.0224482728559243,0.0
0.2905675855886578,4.117933704240494,-6.108234181916442,-4.579305489510594,3.256028080689813,0.48422077434684196,1.0361977510121103,0.1949295738109782,0.9675602948422406,0.2667060174281093,-3.31113460528746,0.9735020605075702,0.8418729264644025,-1.246787423041516,-0.6189527292082919,0.37994955767279925,2.9402611819970508,-3.006677021646552,0.9999296929808966,0.7395452071959393,-1.4508441486350865,-2.61271724672989,3.2182080884538995,-0.3814045304714144,-0.4699825733300084,1.597164249974411,7.330538548042203,1.4057130510158269,1.0060499066702366,-0.0399421135838643,1.0
0.0025023003171226327,-2.0770622271140353,0.034865404448310315,0.19309163341413005,-3.14858293810923,0.7951868616415204,-0.37827654457740845,0.8952052350186248,1.4401139520472253,-1.0910753607396837,2.4020971081512803,-1.478103360549085,-0.6169545924248976,-1.7680377512914438,6.113953686455936,0.3260443763658592,-2.0598610699009354,4.52904136879625,-0.8816285222926932,1.8090667486444099,-0.8464175310990595,-0.017135489375557658,5.27923298066503,-0.7695934645023071,3.2401391486368074,-1.5558207069905903,-5.225438124973492,0.6029641034412616,0.8499039008492526,-0.10868771658665245,0.0
-0.7695623811651242,1.0188900297014105,-6.597473742049065,1.7689510145210767,-0.25437096163988704,-0.01166035588881546,-1.3788033045852264,0.1366718711628826,0.9698670447660528,2.89924356753619,0.5689236510087687,-0.2177532456353276,-2.106587028586084,2.4815807247858146,3.2688473129952267,-0.46077501373165286,2.574534741397544,2.971009214640503,-0.2902618459967523,0.5473026747769738,0.8022239122618355,-2.594068086720646,1.327547603669076,1.7760872803800642,0.7255283730379855,-1.2655805055848957,4.250078088199901,1.2279373473853306,2.441740391745668,1.3640819374650175,0.0
-0.1520908861467986,2.1353152745387516,-3.9870308052422514,0.8149278512988463,-1.3908116921895801,-0.7863040531383287,2.2041861678862227,-1.0798061676931627,-0.004959328318117628,-1.4617694324930444,-2.9392996177412893,0.36885767437921024,-3.6233214134040352,-3.6764971430331626,-3.470485201041649,-1.0872403387446656,-1.1037912083405828,5.97292685462888,-2.394255465949267,1.5457331421535163,-1.4226045460072498,1.0627952864121628,0.7292094196854733,0.6906305697567595,0.8611845377637809,-1.0027542389693123,-2.5455479381780823,2.0737786828032836,-1.5895688283544267,-0.8177041519860727,1.0
0.9566228117354912,2.0077471278210997,3.800783006449528,-0.07683151961385004,0.029647205946155886,-0.4996133236214773,-0.7818468740233404,1.8293296635272782,3.8662493035920473,-1.5275590546312978,-5.723735884608688,0.05258193990585425,0.4396207361734865,-2.10169059831812,-0.5648226616034457,1.4146426674953478,0.9068036654715665,4.087516074854457,0.018438941134260145,-1.3962118143750324,-5.243149851443299,-0.03123075595872244,-0.06437914384222809,-0.06362683744736257,-0.6288979540423771,-0.5129380320947934,0.7123665354148733,0.5173372946836405,-3.245799453617372,-0.9742905608266295,1.0
0.9917503454465558,5.845010616545731,-4.055401985714275,1.8348849862854992,-2.724789079335844,0.22650535211528855,-0.6217693528332011,-1.995080466414733,-1.5423588786515197,-1.7301624882261977,-2.3110630749540215,1.9740492841613473,4.71116480080826,-5.860986152834262,8.281065435643015,-1.394355666669233,-1.4560487415913537,4.587646644350566,0.12013552477091272,0.17907053145719495,0.23227766582010612,5.403223657188018,2.377713572125862,-0.7874753048877547,1.5538005010876805,-4.832059835943973,-6.337984828527873,0.46005434144644425,4.03307760263577,0.25442645742672076,1.0
0.5663065387335868,-2.0878892479250566,-0.9650121760468662,-1.4002769195474887,-0.9155938701398343,1.5563073884802743,0.7692456395599749,0.5882454459516296,0.8154027561194637,0.6786921764005307,-1.085531597065745,-3.016446167557935,-0.2850113764820623,2.017862696178914,-0.7760189003985344,0.5476557719191922,-0.13731759641623364,-1.8832734629718884,3.0065159435340183,-0.5551137363277123,1.7622118515775793,0.9588073650446396,5.290993471040205,0.49007962825149565,-0.12305159098989943,0.7969336943157814,2.3011331222273186,-0.09230539380077397,1.2896144436952224,-0.4632391369225352,0.0
0.6269547482561325,-3.885379849775859,1.1291640827554077,4.056962421422183,-0.6357476183790591,-0.026605105036981547,-1.2092145304831798,0.04112506864187696,2.493222682156607,3.382551421053849,-7.988940396877265,3.025653266921903,1.9366855407176455,1.0945453421254205,2.5881111707190136,0.18253809688267564,3.720890404900723,3.940871348087823,-6.571309856217082,-0.27705310027909125,3.445168144893746,-11.017153404815373,-3.546199487465853,1.2045945793683899,0.4919155381513867,0.5231352397673117,4.368533236638083,-0.7354489203920433,3.4759297172148145,0.4520640101516148,1.0
-2.3263615597391976,9.62193603121981,-12.992309666376503,-1.6471892597181723,-0.6235942856131955,-1.6683448881087257,-0.14990111465838005,-0.8605697894225621,2.5306811927285606,3.990020945043944,-4.561492901595736,-1.973785075659164,1.807398294858063,2.8149852711959955,-2.6572673612039024,-1.0165243621826023,1.6452590539004777,-0.9002224264280412,0.6838588503081654,-0.35845550683681077,-1.9270127445116352,-1.8403165688364256,5.455243248740229,-0.21610437118331924,0.5723852323079027,0.43947555441929764,7.924004885094537,-1.4169364084756522,0.8598178018505247,-0.49057083488586584,1.0
-0.724768458245474,1.365136074388186,-5.213574462632664,-0.23320153705787816,0.212423996003821,-0.06697235972252169,1.2844370527773838,0.7900154089781791,-1.5525264613420493,0.9476931819207585,-2.6122244008412965,-2.093324310380363,-1.9542857323324057,-1.9761472322523237,-2.568084344382763,0.9646017573036937,-1.4708156187347377,3.067574092019736,0.22740699137505915,-0.8753603610847972,-1.471255394383659,3.5914201981845273,1.6409213974137282,0.19300819033204694,0.4667552048385791,-1.153509992253483,-0.026339065919791873,-1.7000197678102116,-0.46759290815818955,-0.45649729846836173,1.0
1.3606760361077053,-0.3056405295732799,-7.720499463542517,-3.301168319359456,5.906006265299951,-0.840981398986548,0.7375128936228513,-1.0291669107459331,1.8819049285620009,2.7524807255643626,0.4242251928262053,-1.2144248649408,-1.9611456519225285,0.3235647946709197,0.030416666037325856,0.2654626594957273,-2.811226538399938,6.49943817689942,1.0455306670043405,0.02655335379946882,-2.1844930303110948,-4.016637959809141,2.4468610272715017,-0.40424559919722874,-0.19998289855677934,0.024628552451564145,9.011705357843798,0.49681250713592134,1.4933966524722941,0.022857509845123507,0.0
-0.4668906169407998,2.550651864826338,-4.562034983847914,3.7456217996162815,2.0891099423945336,0.609175233440241,0.4999666922598495,-0.7989206559187648,-1.2914771808472794,-0.2268185627128494,0.046229924166584,-1.0678574468535145,0.3178845971645846,-3.06957466205011,4.880434585258494,0.3909405982809195,-0.08007909338602404,5.4243629861210145,3.4258223800213874,-0.6262914221876187,-1.0170320424060624,7.605143824253635,3.157881895835656,0.1715095481948434,0.44510425483270666,-0.3109295670698178,-2.4240357894018723,1.206118434774283,4.439129735028137,-0.42472221613872096,0.0
0.08595738801721546,-1.6553240209335476,4.095041259371552,1.114216320442811,-1.796859365637486,-0.5828867213760348,0.38547307045695217,1.5873276541102175,1.4797575945424566,3.231149760383453,-2.6124819533933556,-0.4981241002793477,1.5702333380751852,0.1580671993284204,0.22221898417422806,0.8262494226728235,1.3985285101887113,-7.258871028348069,-3.233077617721065,-0.5871541590312039,4.733377819212693,-6.796575884321574,-2.3546995729594773,0.38934239421973693,-0.01222758521992526,0.49849809104193965,-0.7493837267369108,0.9572338077486858,-2.440655737387929,-0.5321724562434457,1.0
2.2383531617708616,8.050127935039612,-7.317803199905812,-1.6336069391071932,-1.8824586004370198,-1.9223141054539656,1.5274293868801814,1.7111072916770502,3.280989342056352,-0.5424262520814389,-4.873042321464554,-0.557335704965171,0.01272937220510939,2.8664464878734566,-9.61162062609216,-0.3956003732457072,1.4330592816795122,1.626533310452156,0.7735049409097076,-0.938954147968868,-0.507137293548017,1.480925760816124,1.9980816396690635,-1.343125267644541,-0.3636132959016177,3.5679462910785227,7.478401729973997,0.7111924534215757,3.1213659142462955,-0.9308852437031945,1.0
1.123053197526463,2.864677032913699,-3.4913009722585615,-2.902303353071386,0.9333160841039726,-0.1016358477290527,-0.01631721234602282,1.0530000272987412,1.7984995711033718,-0.7664090310381833,-0.4559379931283859,3.434866622270527,1.2544993013353252,-2.3561541122437855,2.8929078832967496,-0.1448408767357999,0.16118829623628605,-1.1616484470229143,-2.542864121252365,0.38726730043453017,-2.304647627315118,-7.861793290948887,3.6253893156780803,1.3156318621882446,0.19490720526237576,0.13612808704522106,0.617250504078814,-0.7270995401759647,-2.59002391397468,-1.0396290784189188,1.0
-0.8688460783184304,1.250790913957793,-6.723758677536087,-0.2920020402578585,0.4588859441599784,-1.8719709055230525,0.45325450128577094,-0.7263593079771473,0.3076430089164466,0.22210178731581864,2.958559097246181,2.7797048298489386,1.9083994221857634,-0.9537885850716377,2.444916345673295,0.3548738029360466,-5.659567656043163,3.77859350482469,-2.636526553481736,1.0637739837855766,-1.3178079747448024,-6.536188768470073,5.504349535369618,-1.173245689947668,0.50997691724033,0.9810383470082586,-2.470652578535365,-0.34477744535889615,0.20856264825495185,-0.9538890884133123,0.0
0.2233023395522055,2.805421001126538,-3.247874256543241,0.021807661891647845,2.903684785394455,-0.40208147512407366,0.5920368258199804,1.4596548295855094,4.050551244098312,-2.3071509425360097,0.6189279257109315,-1.205455100846859,-2.3777568130776863,1.400227714773155,1.8079408797275556,1.0009326791956685,5.032888061883131,9.492507177636277,-1.357462445287469,0.9834818955451907,-4.718940755598691,-1.0922347488758675,2.3046794370015498,-0.07550997256680743,0.2099726215246312,0.5174931648631166,4.01492583669064,-0.8305122982775414,1.5549419024464872,1.0341099905036009,1.0
-0.7447569552398373,-1.0617329089305487,0.893464918093026,3.111081529705473,2.216117143871002,-0.668876034443013,0.9149333898817024,-0.30087204539152507,3.00305813603435,0.27577836119693633,-1.2009927529490585,2.2561061877921285,-1.871514024023277,1.5733651483719768,0.7262566489604659,-0.3054700292478684,3.9193415366377713,2.681841044309753,-0.2525980718693941,-0.33037606334097747,5.019007849943413,-5.36541945020803,-2.9223085809776057,0.4350783381858596,-0.2970572078727427,0.3942445905324432,5.1284173047053105,0.9118317785133704,2.674159097340953,0.33653838187097995,1.0
1.0587806734902474,-0.2663176455180243,2.3822790270025003,1.6176012304857474,1.6597731830017493,0.3653709222153139,-0.06975342922879786,-0.45630303252261956,0.16053712141559306,-2.379192041843971,0.7274838113123709,-0.9022503220279271,0.22986350522875798,-0.4767984860853016,-2.1641809117928346,0.6698080980093383,-3.118486772801108,6.125644839817209,2.057768965715627,0.1981316511358755,0.08838170454433203,4.9307192467565715,-0.9432580498995471,-0.9171554913710485,0.48892723963902884,-0.34885379781723513,-1.8619088835447926,1.5289289948137401,1.284110848669966,0.4794416917432683,0.0
1.3747840989702291,-0.2141112072513346,-2.6341777334628538,0.42946687309681275,1.9970130183511534,0.010017923499404696,0.22866302813671915,-0.6107819450858708,-1.0863731329031783,-0.505800111614948,-1.2543862913550832,-1.487253987356378,1.977697517909497,0.9337874717978318,3.7069841664388052,-0.10840479287478322,0.9878659238636496,6.8699584160675595,0.8589936271866709,-0.31510033601868576,-1.8371456548950025,3.440962995663012,1.8834184518842707,1.345381247627721,-0.19699064821431514,-2.5625162799883947,1.524472287602453,0.14285101299207983,3.6929349101180677,0.9264818751052164,0.0
-1.2566472506290483,-0.14246615683699115,8.43089089929555,3.5875629247965564,-0.7140351737824157,0.44323809808521286,0.6953772364017292,-0.2617009938158365,1.417195849796622,-3.5867946370386825,3.338358314761122,-2.900739626659645,3.2591297777620745,-0.4104124549670446,4.472565721043971,-0.5937615564013348,-1.238822244508595,4.666759720332963,0.4117692625894349,0.16851340233342924,-2.8356698653677164,5.611113098430521,0.97141769873864,-0.00480518632728754,1.8510541768497661,-1.103029731551985,-9.845842713966471,-0.17168507736928265,-1.42280065429265,0.3788336326894784,0.0
-1.390894131258771,2.273482416608455,-3.7648668961437557,3.5420515303275866,-1.2076499482404948,-0.44719939306998346,-1.6891124539708449,-1.015628254718246,1.3177559072008682,-1.1653401199164555,4.284716259076728,-1.4045964928056058,-0.9278190389749317,0.1267368686941439,2.3278763674381993,0.27491271078750706,-2.6918207294214103,6.972651190506442,-0.5908605818739694,-0.48234157521273674,-1.6647137508927723,1.2070191140091162,4.969983407675787,0.9815328752991211,0.09636924005999573,-0.20799463873717117,-6.123949932076394,-1.6516095967182838,-0.16870501480363553,-0.1428665853419799,0.0
-1.084243753611709,2.00852959658675,-10.894224425064841,1.0523092567803007,-1.7956113044720614,-3.5388577250697595,0.5086578042798411,2.0700263824782756,-0.3392759980504856,2.366455553642563,1.0413140861863444,-0.7253083389173518,-1.2774619073852889,-2.3571742329451624,-4.006917851908812,-0.46674581057504627,-6.047960558064179,4.049374117091309,-5.567853733096798,0.122732161638273,1.7388400163434556,-3.904399633973688,4.633709908013623,0.4510882125055664,1.179913410425699,4.207827462829373,-3.321991147632133,1.2840410068362866,2.698285872048507,-0.14894729489972075,0.0
-0.7508994709610854,-4.140671974521441,-5.764208705567229,-2.6408172106175627,3.3909645273529887,-0.13633084246568394,0.3765101381706205,-0.3856846640505317,-0.6342503926728731,1.3445150731880016,1.5080914638675642,0.3953338174898582,0.19809888182453328,4.983778541073206,7.598008847892919,1.8334845771769812,5.6155583830686675,2.8364176854378096,-1.7754882974382906,-2.043936694652596,-2.4278959240280438,-7.383755726267746,4.834238867872505,2.1495532637328094,-1.8919039012536238,-1.4734803814243542,7.363332319801743,-0.05186886376990197,2.8215937697171993,-0.0992003529315567,0.0
0.584683281917922,-4.012780633245846,7.123260532111535,-3.8318611666592384,2.12341643064878,2.027739693148058,-0.6608607622268543,0.38213050439663476,5.9726543120845035,3.4783580051946603,-0.11490539234787167,-2.8101973905133137,2.418249200980748,-2.088761753062211,7.360085298353206,-0.8265151712460557,-3.733357617498168,-5.682284557986742,5.342597891704836,-0.37022559186635445,-0.9723784172952181,-4.292105902904717,4.1592294477271725,-0.16512292222183975,-0.5540737272339897,1.1078186873674634,3.7590102562004053,1.9988717359397143,-2.1118858067757627,0.39177652234694255,0.0
-1.7644481722305585,1.5073351729893227,3.8113817466115147,-1.5240196621720168,-0.29206360498219064,-0.2797152893203726,0.6660345733898599,0.5983980076204188,-2.257273604052676,-2.3879354085203164,-1.8530147835301194,2.6153508746241996,0.44937845456208014,-2.8194986574435728,-1.0308683459414627,-0.9462756317300305,2.8796003252530267,-7.627141077196138,-0.03047099752953042,0.2910068624638142,-0.9211159333210241,0.6951252357810794,-1.8904706319043219,1.861257373980529,1.8342020358562743,-0.8647913314004618,-3.163726396603841,-0.6493103753703896,-4.984140780319999,0.3136403674078202,0.0
1.5125307023025507,-3.7557029397762243,0.27964554577764805,-3.6980086475818212,0.5806290355447914,-1.681880355022538,-0.3704326014104395,-1.179541058580728,-6.3930993934609734,-1.4329561908117712,-1.3531281489892695,-0.31854813501594226,-4.321144847333283,-5.117320628611689,-5.418988090753024,-0.13926870666758576,-1.1335255031988374,-5.101537526961803,1.3799174329254562,-1.13156260654633,0.03865792471273344,6.886577783527548,-1.443726297536592,0.6572011012960537,1.140858986701614,0.06757863335960546,-2.2983619411712666,0.6170630447352031,-1.9920320833348848,-0.5641148006115946,1.0
1.1959764624837037,0.9079301948283709,-6.658186184295853,1.7471019771389744,2.1416514540327003,0.457040065596367,-1.5474221283691512,0.9757125379826657,-1.0458288623003238,-1.1321903758176406,0.45087971887082423,2.474941121657815,-0.4884056602576127,-1.4560884540532841,-2.089820282588367,-0.47285279297804617,-5.732122259044512,8.54625272299775,-1.0313650635030047,-0.34432120176999703,-1.0715366904799137,-1.765455812982181,3.1685970924089286,-1.4261137171431046,-0.005275597109045737,0.05844592354147504,-1.947273989476279,0.4029445735036032,0.35261058489853303,0.13883208271781333,1.0
-1.236662966685065,3.194952338085908,-4.532865881622622,0.3565466552205665,-3.057898147247564,0.6765165547809898,-0.6483003273443845,0.0007209069359758764,-2.382742631390725,1.8798878749393761,1.3773947925241463,-0.31272844277398837,2.027153890990646,-2.28464219955244,-1.0268798897396856,-1.7171766698622837,-1.6236062163802856,-7.809605173300413,-2.801685966452922,-0.4267063677307888,-0.36590688070188415,0.43147166410232884,3.3355841025919837,-1.0986549631220837,1.2399368072885906,5.103306641726033,-6.064367700184188,0.9714218648162062,0.30541996606121957,0.1343281002678751,0.0
-2.4241506170373057,2.4301337623880794,-2.2605182976728693,-1.092284149991157,-4.1250341164332145,0.04177365736491215,0.8042562729474444,-0.29263062033020526,-1.261696185599582,-0.915470165807093,-3.3298575639813555,3.782871383460567,0.0905590766318265,-0.12477682951660363,-2.9284371467989097,-0.32768654132878194,-0.2524230831309353,-1.408569757437229,1.4196193243090067,-1.2947051806855492,0.07227502966386168,2.447148519994857,-1.1191071931905772,-0.23610401091920777,-0.6284857063107556,-0.4073022960794086,2.2279410252669374,-0.6899159780289247,2.064169078863374,0.6426567318548759,1.0
0.151231072166842,0.8847506896792322,2.826291789655616,-3.1890092052713435,0.011985645236619824,-1.9053304524509354,-1.02373085374717,-0.4147023867269672,0.702214154435397,-2.281173928184505,3.043250430059016,0.9051832236938151,1.0936556733445066,-1.8535215912298244,0.1767676782583251,-0.5122951462609718,-2.0830349534949253,-6.171700405928491,1.9174490620577571,1.9630858846815047,-1.9632746428278383,-0.53107582351584,3.554384354507263,-0.7238037443516702,-0.04352946650466633,2.2351824994659566,-3.1801707783181783,-0.7026577451166509,-3.500472141166749,-0.6159561935134189,0.0
-1.1510247094577337,1.4134043351674521,0.6712118967267732,-3.2150155404614464,-0.3530120742962759,0.4631620978788213,0.04487323565970198,-0.5108248188641186,0.31653697621765864,1.6970906296249737,1.6445488008776241,1.2440680009971823,3.6861575337428754,-1.2145067536417236,1.4035772577942642,0.22089765608138748,-2.6823331902321965,-11.257493952808609,-0.9155161920706592,-0.9645679324291752,-0.7149701966669872,-6.92442696161712,3.4997760036447487,-1.381432652530298,-0.035143579404707616,1.84424145286158,-2.8120437593764605,1.0425415920925094,-5.782079610211019,-0.651910035385637,1.0
-0.08485904498935258,-0.9935347739992404,10.331839032704055,-0.5971788467975725,-2.8453487020589154,-0.03255022308771416,-0.455460383846209,0.9701010940126534,-1.4486064400917555,-2.609473545957144,-0.17814859502145808,0.5581563443290654,3.015116955382016,-1.5586937614717407,-0.2999416467367959,-1.1838426410516691,2.3362696334564026,-10.012808364224716,-1.393060987683573,0.17380116487733835,-1.833878510538567,1.923416243858434,-1.989102142101192,-0.9364460516490096,-0.2300253079140055,2.252199572619385,-7.610125631907347,-0.776536344541371,-4.350254054431431,1.9938629392325948,0.0
-1.97929830303683,0.15417225473358975,-2.8871602051301086,0.7819347896378641,0.0780902466787401,-1.4251777645007055,-0.46015096167640857,0.5064207749970311,-3.1928417921182795,2.4089926778425186,-1.891999091132242,-4.218557302912603,-0.24720664478895327,1.8288789914890078,-6.902402673896099,1.182594359069889,-0.40318199344572136,-6.427820636795358,0.7458133526912805,-0.14819354138251523,1.2032564674263924,2.8537566379201067,2.6474783267646655,-1.80817792253016,0.9079991561824573,1.9455848388415995,-1.7247103728504978,0.624287956648842,-3.1453210872132495,-0.3677023262177871,1.0
0.6545057527231394,-0.09860909328798817,-2.5641799280089947,3.906786193777921,2.3447799446465014,1.3714747821409226,-0.9652763395995575,-0.6564299636141254,-0.7300432537144217,1.293263166129483,0.6149932533498925,3.8433146109665026,-0.503091823342388,-1.0513289316133407,6.084310128835692,-0.45127053092953,0.7650055406254725,2.117072042228358,1.2322488283948119,0.09315877991765241,2.3414346421104444,-2.8369322351954613,-1.0161111809713388,-0.9844554964640968,-0.2601753497955941,-2.6219809076834455,0.5565531178058482,-0.18018083137286925,1.0157633480317505,0.1751749493090029,1.0
0.25431562655371026,-2.298264729323956,1.7653505989633629,0.336674116990221,-0.14254628727547747,0.0635400505023367,-1.5793656993630016,1.6610939118967147,-4.168863452721588,2.827519163792113,0.7163895359523498,-0.7516457276724837,-0.7146352049219127,-1.425418891015288,2.252850887403785,-1.5604981578743569,-1.0159910782280763,-9.0081175732242,3.074846309645375,-0.701750442130786,-1.4437065825612703,2.6760393809889274,0.2056289313056583,-1.3817702424835547,-1.0639936165655535,-2.084771751212349,-3.9759919208467553,1.4123806710927012,-6.128847283277934,-1.7171891333603786,1.0
0.48809538137918235,0.2732126076717242,12.759868033145738,-0.3095130106032349,-5.985410282151611,-0.8959958531697858,-1.2681436516314983,-0.9269943866745629,-2.8851617451812395,-5.015567881821332,-1.7124118233950751,-4.163862597923759,2.6243608659767506,-1.5868496880911587,-9.165026269434625,1.2277999878516854,2.4493545279848137,-12.344104383161318,-2.0400047419572904,1.7675023957653402,0.6259107063150262,9.650586137956903,-1.933752321223241,-1.3599691901191746,-0.7498482103826004,4.465740336461147,-12.801840060473662,0.3348944417522922,-4.45606706518552,0.7839676512169459,0.0
-1.9308529392530067,1.1569705031932738,-6.495406380728706,2.983679154057962,-1.3258164361133136,-0.8374680161265329,0.6502223934069432,-1.7547887421223871,0.05464907206175007,3.581210132491628,-0.18482452812554384,3.8581280560305724,0.9544729523054223,-1.0922519755104458,9.221571160175824,0.009140675822632775,2.88667080757888,-0.9479589344791891,-3.28204923954626,-0.6742902925848823,0.25154758137128785,-7.189305902599555,2.2476540774200098,-1.167651782116426,-0.03923647369874391,0.28844169409281806,0.058426814936743364,0.11965930451893353,2.6998701609275546,2.5511742525026477,1.0
3.089889607686385,1.2955771496388442,7.9756905133925935,-0.3526283607960401,-3.522141416028283,1.9499750409961005,-0.055733939893613596,-0.33394559630536247,-0.43371889739944747,-4.885906380153255,0.7673816382437436,-4.245998353113989,-1.6164690020900885,-2.6154242922793336,-4.758824543933356,0.5225100702105114,1.003674647437229,-2.4213334383750493,1.1637631107060131,0.28020554105019435,-0.20564402450629404,10.640748571329059,-1.2587926688329887,-1.2457424502336703,0.2128198468830529,0.0704683286181792,-8.37411174905592,1.2932994952412589,-2.821371076234855,0.11544263616427654,0.0
2.81598590372273,-1.034705667346803,8.22421807596988,3.354764604906628,-1.8634885467396098,0.05138541062432149,-1.6985697106229332,-1.2745191073073694,-1.817317809004846,-2.5273875589629142,0.5592517276558159,-5.1460794673649275,0.32255496051905996,-0.16600897621505417,-1.6369063279193687,-0.8552063823110898,1.5555716531624864,0.7743659625482856,0.22844768956113448,-2.3907821543252377,-0.27888633083673087,10.413952412208296,-2.9317238546279896,1.5984264553578396,0.8491426059321912,-1.1585300724511938,-8.566400159054266,0.6787426017187439,-1.3598022985221163,-0.3295038006361257,0.0
-0.46630397744491264,-3.8617336243847773,-0.5929639963618497,-1.388266193863539,1.5578639736344777,-0.07721744346794951,-1.5786752019029893,0.9673112330382155,2.8518556103475765,5.956465388233795,0.5000537363304043,-0.0980721220236288,1.652642514597729,0.7493225183324872,11.939886811731027,0.529306211790573,0.5468707519722362,1.717115347470287,-2.1504761044527108,-1.5129567666002675,-4.49996240151599,-8.778538355163922,0.4090173916052716,0.9957812283775287,-0.12613176032384468,-1.8321459721866866,5.426616559444563,-0.8026613902337145,0.39412714683794625,0.31085819079481136,0.0
0.4622624644542042,0.4326213449021805,2.9372620499585245,-1.2056268058198665,-1.1968172301077675,-0.4531829756295582,-0.7723178427228345,0.3854697750335259,-4.756869791620524,-1.6447333280636767,-0.9192244997251413,1.7477809591387543,1.6043881903830084,-0.9742916025789882,-6.1846935065675215,0.88323257530898,-0.4496669661818635,-7.87645875186718,-0.592592823437624,-1.2325760546154823,0.1472257247750386,3.6831390424437953,-3.3902562760486283,-0.8462132852877351,-0.7618756289717585,1.7087491339829621,-3.8206125758423717,-1.5347873290951395,-2.290004906882202,-0.2031807366208805,0.0
-0.05605556594019711,1.939065869189697,-0.1833080670947142,0.8217967870419663,0.7655637863159213,-1.1064745561139018,0.7160457490404942,-2.4050695499102095,-1.2036243228265944,1.1960422761991207,2.789109422520267,-1.4383416396040212,4.535985793453107,-2.2964390358796343,6.487804436094666,0.33340901239271253,-1.2469920054625767,0.04447349304773961,-1.1695227744051482,-0.38259338288737815,-4.105433625231335,3.6088511736076603,0.5944795761785262,0.10175105077163865,-0.32010047635008365,1.4845207049089648,-4.739719591071053,-1.3680741085319892,2.399947177925864,-0.37910174834874727,0.0
-0.9798387725414921,-1.0550433730226798,-6.912565106269997,2.3210476608160033,4.432334861514061,0.4251332467137215,-0.09662953619667236,-0.4056883798062532,-2.5701082183185266,0.15433343872004024,0.6387715882818181,0.3909124660366241,-1.7454500280744534,-0.3202025168434044,-3.3088362006446426,-0.014977773629630677,-3.7455333531266617,5.779006958934794,0.4766645967635639,0.6541280021710922,0.6321044181529634,-0.14455966615290172,3.1465660819391377,-1.1017743629397738,0.7394094886164625,1.2165808105836502,-0.31609527435461865,0.6164221048147337,0.8189418714760146,-0.7152209517993878,1.0
0.24937028272765205,3.4718580094264744,-5.252865548822106,0.5621854544188843,-0.49122352313817674,0.8731831407786059,0.6588139748838979,-1.6195560287674056,-0.4575703934322741,-0.6707269036661134,3.219491443861026,-0.2265675994371117,1.5068084539387874,-1.9746177834410084,0.5894159045199756,0.24213315567402635,-4.616598820450276,1.8950829611091995,-1.0040282983839108,-0.012143411138766203,-1.4992202116585964,0.5278444576607844,5.173671312768325,-0.39092305952474016,-0.10652910519408315,1.4729232346331167,-5.723786408461136,-0.27460232652043887,-0.08557443253655728,-0.7051820240254287,0.0
0.9690405516353497,-2.261332037509245,4.656848316021102,-0.3585679385154532,2.1477925757471557,0.6518839479369677,-0.7901701308584828,-0.9950849678878427,-2.8431926974694264,-2.200962553890875,-4.322428712073608,-2.383790976219439,0.21410917555389664,1.0123653562306885,-12.402299354543578,-0.00798120435170447,-2.4529409925417704,-0.9012371478697092,5.139476238232251,-1.7001760126188237,-0.2634738032725239,10.798805999188971,-2.246913290419498,0.4472521554922508,0.492239464464855,4.4748788745843555,1.8797034822649528,-0.4475971905164135,1.6682500878764013,0.20441437150141376,1.0
0.29703947087987503,0.8161991340537798,5.754532113495953,-0.018491819804459242,-0.655403268366165,-1.0837353699401662,2.0361561863588413,-1.1227366253686797,-0.8770216649244291,-1.108680858233704,-0.5478334900479762,-1.1532595168167745,3.682633524053093,-2.0707810751954527,-1.7931238686523923,-0.8028080349487572,0.3849069219483412,-6.108576051155444,-2.612749484206205,-1.2743851344689174,-1.112943856348725,1.6525142711280547,-1.3048859873807377,0.006964223441937532,-0.4778523960351749,3.585929568653029,-6.155098961944674,1.9757358680726422,-1.8162310848674577,0.8403568239355511,0.0
-1.9394054081418746,1.6477555202860932,0.15154674925845302,1.6371571530882667,-0.5093707999907666,-0.3759357199135793,-1.7725785653614543,0.6412790194105756,1.7127445126568466,-3.5533240575431844,1.9293868036165391,-2.0619051929293652,1.068726652909142,0.6186202617388541,3.5504241858796917,0.10841247335290131,-0.279927431008548,6.925298921324086,0.8088415468667576,0.8900101268264297,-1.8516022590132615,2.473736872365825,5.5396630522368495,-1.6759410190991015,-0.43958027556224044,-2.7122180399762557,-5.12313050765731,-1.4824141410588727,-0.7422219519420687,-1.3146373957920054,0.0
-0.3615773114433937,1.5530824494688955,-2.2231202335073483,0.1264083517880219,4.275604726252343,-0.7180388134051491,1.8534107978998282,-0.8147181812341315,-0.6373119447861808,0.5858364360558117,1.6807410737497617,0.9111026541566403,0.3791748611176695,-1.2565884568428918,5.178476217407025,1.4418053290159079,3.609379396141685,-4.327430235431256,3.130874669622597,-0.5047194101871159,1.762161059323788,-0.13877798184703088,1.3882896624854064,-0.11149078712511214,-1.8387767179789956,0.1590617210432803,2.303283419961122,1.0719653675991272,1.3209336253768187,-0.15703669059262962,1.0
1.208682010835303,3.420159025686745,-2.7497944314456473,-3.6489273481030082,2.292673728154246,-0.3277371502679994,1.1667849932032077,0.635530199832898,1.501139623409089,-0.40887198864715923,-2.7769424242247007,-0.12240476253469579,0.48586302039299856,-1.4215955468134678,-6.396531249189478,-0.8179270935854663,-1.766316238538866,-4.963859880969411,3.7325037680837356,-0.033764781397654105,0.8965335861763055,0.2754613437135797,3.4063528230970324,-3.2750106339134555,0.0503718966729968,3.9139048122383864,4.720153063925199,1.078533546062947,-0.2132545304552349,-0.33913027092789905,0.0
1.4668732901546866,0.7385083299369002,-4.686670311416925,-0.5375959703344413,2.3807769413592155,0.6755099976797855,-1.85941332594626,1.6221749188698538,2.9559136974859155,0.8559996766782003,0.6543834722039874,5.308684179938039,-2.3608843025647532,-1.0713190567472037,5.1454907284207785,-0.8829653984467758,2.5875988005906234,2.221648591672412,-2.0095446524035845,0.5392804508806763,-2.9918578922070544,-9.754053681759233,1.372957417284033,0.47186233803100786,0.0038806166804070605,1.4998605378048713,5.210749260218491,-1.236520336346672,-0.010790277287818784,-0.5077333032297566,0.0
1.0946716363802766,0.683377238565138,-11.712573271610735,0.006314823809537851,2.6860711148048204,-0.5933248896299341,1.3985910046261056,-0.6258845309014845,1.2093979838911144,2.9820982970083008,2.1455582076747417,1.519654381280184,-5.488613398162617,2.1527208148468864,-0.45303837581986406,0.992929769295528,-0.38905686138329676,7.893707103474265,-1.4003271760363618,-1.708654247142625,0.48254015297202946,-6.351986523181097,0.7897584650700417,-0.538461460622542,0.12404511842672028,-0.5994087090466813,8.318742834417733,0.09573583386656329,2.512284341793535,0.7470728438465525,0.0
-0.7996298241670389,1.7564598204722754,-6.04257912570887,0.8850274673664398,-0.9020346368619341,0.5567358388359357,2.1071185232060228,-0.13359779332776944,0.8308837199639583,6.714793549894993,-3.7358984859759095,-1.8005556967836212,1.436219727777127,-0.6262995586165647,2.210108536138921,0.12454680202385442,-3.989856385140758,1.2647966682692924,1.5404534394277645,-0.2477138425029538,1.1344922846765635,0.048263598895429694,-0.2675119453571677,-1.074964627725818,0.36709584173386034,-1.9764809673972643,4.708975453165146,2.2155446162047645,2.6364786741857578,-0.9104407105668227,0.0
0.5586265327545139,-1.7320299072311074,4.120152381454891,-3.7774429660640614,-2.7791719324363,-1.1584131725727902,0.9575547190218846,0.6875643519941369,0.30838853703393665,0.6490380353775981,-4.426134693978298,-4.757629989502205,3.613008175547676,2.9592937330633653,-3.4541547135150044,0.4006918370857067,-0.573781484831509,-4.164578676708796,3.0928031746420492,-2.6222191545409426,2.0844714063112093,4.701170392524609,1.058951239425042,0.1976493028995068,-0.6913846151782217,-0.8759277587912274,3.462546319244827,-0.3234794218766272,1.84353502755997,-1.2348457136690911,0.0
0.539401988209408,0.005613973060612065,0.22700592144021114,-2.8535536444752116,2.833008701327136,0.19128826013625272,-0.7809697071601542,-0.2280932319970342,-3.146780825585881,-0.21118881273327883,1.1607282645558352,0.053786659322125896,0.5043408581385707,-1.8489844672667992,-0.025596136097318783,0.43129981306371623,0.4231454343387173,-7.0717898225346625,3.0681258564104423,1.222798635970556,-0.4769428454077237,3.2419366946628783,0.23198100162659585,1.820871810123474,1.4072381367677635,0.6650963400336234,0.3361579245967771,-0.8526850162328397,-1.1966145818015352,0.47255739938382246,1.0
0.04722809229816076,0.5227380107497923,2.324352904574146,2.0033885220326875,-0.5270100858665998,-0.28696963651236274,-0.23596991504609993,1.4035353319541772,-2.2087466004645986,-5.004931088754047,-0.5358320757481777,0.6382614575473093,1.8145837097477209,-1.1779839178382776,1.4083169475856296,0.39296375261782707,3.384469372568141,0.14943448232022283,2.4640253447025833,-1.2784199223571482,0.6973540283959008,7.660300264905172,2.7920834768400846,0.29598790484296195,-0.1563631374365723,1.3734712373793845,-4.751893136656313,-0.8123618942875219,4.012619515141035,2.3380114042063296,0.0
1.7992510456861954,1.332587606319318,-6.6155240974096605,3.565462212301534,4.974549112421802,-0.10423797949803458,0.672034945655442,-1.7580551914371976,-0.6610066355948403,2.2583236514222715,3.2667209132077053,2.6077969113611275,-0.19325130970354598,-1.2574633459953504,6.7634622435190925,-0.784496072389535,-1.0380645877872352,5.746781803816338,-0.34478920221648046,0.8588947966598731,3.6100755418412507,-4.234747012538655,-1.2609019092645064,-0.786806656896385,-0.6302828007794473,-3.431957239317641,1.3271642018428698,-1.2191858277651948,2.478485891851062,-0.2520759659099735,1.0
0.044607724434289384,0.8676397065633521,-9.522488752010828,-2.5554492302821,5.250628980663553,-0.3071002056878268,1.1375390131506349,-0.7105300793262077,-0.24965492975600778,0.8815432274207077,-0.12166484951072787,-1.039843062200083,-0.17228104919602716,3.1048263794608677,-0.6723873160716946,0.15091096362506948,-1.840180127499989,10.663682987930207,-0.44013425858051103,1.2570797684810704,-2.3354085541133305,-2.773568352352689,2.416132077980431,-0.5342402719629263,-1.365140676856802,-3.6840845538034586,7.693570685863833,-2.57352424369814,1.5365663629865742,2.5943101847741112,0.0
0.43566456645700186,3.5534805568715884,-7.62951048618151,3.3681989508658052,1.0291850583641204,1.4388263794542226,-0.34876446469964173,-2.4549735412739464,-2.9075774512719126,0.6636171894270477,0.05563351003295636,3.356555394231747,-0.2787818160110055,-0.5818872137222015,4.567945687996244,-1.5224146942667398,1.1016627007432538,1.23432112566798,4.6834312535284734,0.6200799984463362,-1.4775435675111064,4.4708400872356115,2.647485200635313,-0.8902544200486536,-0.8019092044499575,-1.3625489918615452,0.7860134991740839,-0.22802802978487915,2.6818005269658847,-0.5859059606811758,1.0
-1.4107996936270562,-4.282807097408302,9.675537916832454,-1.062256297746448,-2.90366452986288,-0.6166335598554541,0.2735287711417637,0.1834465762181352,0.7089831450812247,-0.43558646242010535,1.0800320860194965,1.4298258705507063,5.449881965682213,-2.956862841204524,5.427374044193585,0.6012579620436356,-1.8251717305233601,-5.255357571202619,-5.857670831945365,0.3641085442426688,-2.026037659229612,-5.501787152630809,-0.7358940851028732,-0.7848299034326331,-0.39063653075135196,3.379031329905741,-7.933820145744639,-0.5747964176044837,-1.154117897263708,-2.184492735051809,0.0
-1.5202660808946518,4.399100042604555,-1.2805373525677277,0.500239143186886,1.1918498557490484,1.5057911210760857,0.5017911677776411,1.2169688626813207,1.5428821372842787,-0.06376530156617233,4.014196290634021,-1.1282334450969151,2.1832407240715987,-2.872083116823629,4.585793610064096,-0.23370501170845875,-0.9344518349657218,0.25782142429260535,-0.7553187105251034,0.9480843874360897,-2.7985795648293768,1.366632120352034,1.8724848020581915,2.188498986095991,-0.8395392371006698,2.211834883068456,-4.0802584360928495,-0.38187934439569,0.7945115458471297,0.22441720794411618,0.0
-0.7228852010761648,-4.580631183392226,4.222710442536824,-2.3105993061182515,3.681202615050206,0.9877351010253084,-0.6798277099612238,-0.2287985078143456,1.2015053623781076,-4.2377675619519035,0.9675789282044804,2.357300130652624,-3.2167900227830373,-8.624780577546861,6.27978257830712,-0.9059651413176992,-5.335621003739503,13.60802210480738,-0.03842879666354526,-0.3492954682052211,-7.114669415848694,1.6407507210302261,-0.6008772681267549,-0.7538915285546915,1.4303627991183554,-2.998715572390592,-3.036610024464242,0.4514695865637963,-0.8776085473514323,-0.8705543556461532,1.0
0.7633341509338765,-2.9174500975848163,7.285541061607603,-2.883870379557193,-1.3871470363432126,1.222065274196185,1.321061738353467,0.9469284683570564,2.182904577802245,2.3438999808763423,-4.276517639825638,-2.221291784430215,5.451053985866425,-0.7637336779007797,4.295510415333297,-0.16456096962267408,-2.4897569568218207,-4.085027041476894,2.1035038367217407,0.511326644162355,-2.383552784574067,-0.12685500796724214,1.0259078343056074,0.32087651118457716,-0.9026996642225333,-0.7116163665276838,1.1257134276204521,-1.3971523065481517,-0.8814590703416798,1.3303816856580606,0.0
-0.5021161798640451,-1.4719692599727567,-3.70262507850496,0.5551000463701574,0.866786025997389,0.8821137720755067,-0.24688539656869044,0.36447972784649113,-0.5905658097684348,4.198081316925405,-0.692880447614362,-1.0957909679431674,-0.23205116405616422,2.034418510752893,0.9109401837125067,-0.857567574146144,-1.6234512696230268,1.4306269596552732,1.743863370016614,-1.0072498584559615,0.589936725671081,0.12164190320887217,-0.6546708294765087,-0.07498961912722062,-1.138058318655267,-0.8920567972317222,4.999439433235421,0.6528238755197853,2.4487685789679476,-0.05106066511498226,0.0
-0.6644371821053475,2.654404059528476,0.8535519576516939,0.670102761685738,1.5079966165135241,0.5593373245276719,-0.5793538328376587,0.6401696361230503,1.810847352074584,-2.021167207645662,1.3538773774162896,0.35495380483068906,2.1668270862286185,-1.0131800507314117,1.46871667331313,1.1433198239615687,-0.10513439463696739,2.282868256189054,-2.180153953177623,-1.0271174242187837,-1.7467712550766905,-2.350513025827611,1.4004709208930137,-1.4983689854658357,-0.28491234787746483,0.634865431950635,-3.413800373804175,-1.0253338905324527,-1.589048489923861,-1.4353559159910807,0.0
1.332076192716774,-3.0816236369629393,7.867363561177289,3.815063157469602,1.8456073816442449,-0.2745122995489245,0.8565884418863505,0.6033731729473202,3.083360458518104,-1.5869348081653722,1.957298557806876,0.849267142445429,3.6598014479998997,-2.2684983444597187,15.009095412630748,0.3034371862498239,-0.6284050517518964,13.373654192660481,-2.571562192746146,-1.8610399293321147,-7.988225333320467,-1.4717672867189902,-1.1051127762836215,-0.8961304679725128,-0.9014951068941558,-4.846682067107977,-6.119890745122032,-0.811921659107993,-0.6047640289903857,0.1126576887506457,0.0
-1.1868812295940714,0.4264939234594223,-1.6589122551598496,1.8247498685170882,-1.8356851804205432,-0.6629066722798649,-0.1721442737084734,1.1653274178021615,1.679232133188284,1.7161509672970676,0.4280225522699619,0.39982898691759616,-1.2827022340716034,1.4556753199494146,1.8682953667138462,0.10422793912840751,1.0927086547800933,-0.4642477210362713,0.24889840181730583,-0.29840627192384356,0.839176223069549,-2.3980095857910166,1.0973193762848057,0.028078774047990595,-0.4488038011627814,0.15065428624034594,1.02078214917269,-0.2541034540355542,0.21507743531363044,-0.3386843240985971,0.0
-0.27888363747316974,-0.8940139069134425,8.780533831117268,-3.279078620720803,0.7907713553563673,0.7283452130695429,0.10934057634090907,0.15334476760211485,1.9059694461076333,-4.560712596078513,3.0363501795626884,-0.027094996028647622,-0.2150578302169992,-1.937694572387704,5.25980191222323,0.9692305876119747,1.5538025860368934,-0.3256049323466729,2.980699294433147,2.0531401837412075,-6.001355189008298,3.0428334728504023,0.5504515240195007,0.8277079982342662,-0.7144960913030979,-2.319171943876361,-2.791325040047481,0.5886354597962726,-4.554604629491683,-0.35476852115876417,0.0
-1.6522992883621435,-1.2730561203403448,2.8372216852173255,4.45294093310104,-2.2871939445529903,0.46957889689839183,0.20946196973019687,1.7726916608999155,-1.9489942189378255,-0.9503690495973445,1.974154234280301,-0.5380095020126374,1.4559879037314234,1.7974837578627763,2.058334084441093,0.09373330317385331,-0.1863316166308555,-0.49749749093801376,-0.12381900845689142,-1.0401663052212893,0.37673404603288585,2.001012326907626,1.6249268428948473,-0.11908614349605941,-0.7848762463576265,-1.3701188781955143,-7.911434707579743,0.10103348798279618,-2.1960136994265893,1.0886147013193521,0.0
-0.8577388807870001,-0.34431841761012794,-7.965571583467847,1.5894100752653806,1.922926493275977,0.19674232376570605,-1.2538048271000084,-0.25056036861869124,-0.4999718137926654,4.196669288853694,2.9079391229186413,0.40350320059971123,-0.11364493308191326,1.516058233662795,2.375993191379211,-0.8124651836820451,-1.5034202229874567,2.1308112239608574,-4.110884992991378,-1.573914211994401,8.483389187005404,-8.834937152263063,-1.0202985479209314,0.06225985632933222,0.4565023351677955,-2.4944415468107515,2.5997738972413464,-0.6290567313584048,3.108312184868324,0.3055643843570512,1.0
2.0350091093347893,3.3587432864039246,-5.499566890866166,-1.723284400953884,-3.0519875091248228,0.14091764823475636,0.26427057306180435,-0.9883944384668729,-3.46969179474568,-1.0842790108657314,-3.376919555018897,0.8564642047119724,-3.220863575852838,-2.4240195644994387,-9.299295822307734,-0.6403187591794156,-3.4907686949447805,0.8215200672951724,2.865695852583422,0.35820663387037477,-0.2007183870756929,9.210830441643358,-1.4650979804366338,0.15103290905513567,0.3438678131479371,-0.02827989588306634,1.2110940429513914,0.26593258631826233,1.6286582889495915,-0.27870892421964716,1.0
-1.0385563060358844,-2.3553745240454664,1.675497659698852,-1.3364777088763704,1.7477229854999716,-0.6960201616009518,2.5403910976814337,0.20866348324991468,-2.444852124116082,0.8367993104725318,0.7495070704040978,-0.1624155721760291,-0.2579575688598864,-4.528650865433329,2.021293202355652,-1.5795054170872729,-2.6371506331275647,-5.2172276827706145,-0.22557289999661068,1.2924293743370827,-1.2322704766853547,-1.1320476567938849,1.3086394243264823,1.3054024262651662,0.049324836699559206,-0.602819970087006,-5.045691848351666,0.5681840033403978,-5.41785839494763,0.5900047611044712,1.0
-1.7328736516456296,4.415820583087368,-3.864049926714209,4.660718549160175,-0.5388434029414477,-0.3427065536132635,-0.5757777549240405,0.8222321820393413,0.19350154411226228,2.778486105606529,-4.462447274306953,-0.6696622654356106,0.3074124143638135,1.4667244638096895,-5.1998901601341325,-1.9640321579709097,-0.7152937910521756,0.07116776473219888,0.6861402857356418,1.9011207312676073,-0.3981014990696652,1.0100914582587843,-0.10616562418894437,-0.5996636543589989,2.0905299019716126,0.6122660417388491,-0.023664921956069288,-0.013332847036461887,-2.5406534988548954,1.573599639232585,1.0
-0.11569648291566763,2.020675382718058,-2.714768072241345,-0.10794219816989115,-0.9927863255585486,1.9908946329442072,-1.6150318721278794,0.4861712414658739,-2.2991143054562415,-0.21682087822222285,-0.4547035934654713,0.8704503070198069,0.32964268130967744,0.521696644535979,-3.66339781337231,-1.0625075755103008,0.7111810185896106,-6.395780271586627,-0.3586123640827763,0.6075656271213766,-0.20219949728516862,-0.5396479700406083,2.64407950541524,0.1630663438855776,-0.3985069178825137,1.9544880451482987,-2.36849153955042,0.5058619098405933,-2.9404700277681064,0.9956590114287024,0.0
-0.19736760700948927,4.530638531328864,-3.7364939250961005,-2.6531802467581356,-1.9503585365486562,-1.4135149731971948,0.011095220319579394,1.7004292964590928,2.1520158843452237,-0.5139612193810448,-9.739012364328355,0.4994475698074805,0.5214256679422395,-0.5549840180016773,-7.363496826313661,-1.7403678256144852,-0.29868248898364447,2.135179765268203,1.4427783457932812,1.1672090836471585,-2.5109514904940187,1.4018208305452888,1.8547521881204427,0.8955255374169739,0.06835044365313034,0.2590041452907389,6.277202292696638,-1.8574787826634034,0.03615727528321866,0.5011712644886682,1.0
-0.8774547400031002,0.972903505398154,0.379225043374856,3.318201981468497,2.9625156378661655,0.6265947999958954,1.7824542165573145,-0.3352072532594187,0.658784675376146,-0.3002549202391509,-0.7353999831199286,0.6879717891607944,-1.1732772511631386,-2.673301983110277,2.5915165093736707,-0.2246229235914776,-1.5307959124268224,7.804700675429885,2.6936724372677556,-2.4045495258503897,1.4706472012902503,3.464924900790293,-3.5789021494020536,-0.668751713577545,0.08410648788849061,-4.039633087212266,0.4533790734590168,3.01471170930221,1.302442628380296,0.3126509912073227,1.0
0.09791373760864185,-0.7732554256180002,-3.436668100325886,-2.4442713166492887,0.13268976686656742,1.0016535033771001,0.8099568133525075,-1.1310423742958853,-0.26901744389919746,1.6133541523820112,-2.1274223458649146,-3.003392071702877,-0.06191347657460655,4.247491999582529,-5.048897274083866,0.36590933791482744,-2.5572873770976203,6.550302617969876,-0.3712562927639713,-0.8990125553843011,-1.2106670257171086,1.1209512302491829,-1.2605323360503782,0.8905221776454686,-0.4214777473057731,-2.89823855362204,6.084445313618493,0.4209635271274037,1.0728611831008052,0.865244950343942,0.0
-0.06813911378735642,1.232959923814505,-5.4384331374768395,-3.779017729413302,2.14886069355235,1.0409140828073737,-0.3350994787992345,-0.056134282959584794,3.0617064195314403,1.961630094609927,-0.6535946468777174,1.7101905870344338,-3.0397445698863432,0.07781205114206724,-4.1495560624506025,0.043585598389575965,-1.7424577394434597,-1.7836967442602325,1.0118086453117103,0.23010117346986314,0.05599494706298658,-6.9806544852419306,1.995069257526012,-0.7470393206992747,0.7766460283941474,2.7866359252576904,8.256133279228584,-1.3895991634335654,-1.2006368143047697,-2.1910740725646645,0.0
0.41857288599115444,-2.4455874064875216,6.023279038644769,2.8899120830795155,4.0636974743895315,-0.4215940625576031,-0.525458414206894,-2.406238151009897,5.317568119573162,1.503662761931806,-2.724475800103233,-3.3528668220915305,-2.629619983268901,-0.9756309944401116,-0.901961208888023,0.7933493236860584,2.9959879331192107,2.574927282489382,-2.3763181527782296,0.35953594351786894,5.329547077664784,-6.202632964024563,-4.077953817148275,-1.314170759104837,-0.1707466394983074,-0.3321163812082647,2.1461239425772742,-1.4566814413240818,-2.5071185489844248,-2.604346935214705,1.0
-0.5434731072535431,2.5320442517338897,3.0097955153789644,5.357589898899339,-0.8956121863726428,2.0026827664085918,-0.31487533206307944,0.03053649499535071,3.6773430371125153,-3.176084508741685,4.128536108376011,-3.1188649740404455,0.9875982996887719,0.47468386716717403,5.0392836509759285,0.13999374263643455,0.26481803685895144,7.575346364272965,-0.2787127735381383,-0.37656662149101117,-1.078814610919055,2.4806782095471256,4.008340550148656,0.2853993767216869,-1.181286806672826,-1.3006243696852975,-8.775213110207781,1.179259334610126,-1.0042484026398697,0.6291750910507029,0.0
-1.839401584186729,0.7820782812060161,-0.7993033118942461,0.7294584930675169,-0.6165538417215144,-0.03602103575443992,-0.2637350376313479,-0.7394144316026904,1.960673872276002,2.2849109878122382,0.5167956257279736,3.3538775960117846,-1.8718389545648053,0.664062488237467,-1.144931162462829,0.04886918330515309,-0.05983900204758208,-1.5145927692549987,-1.3814079999011657,-3.120544022943797,3.177055354135775,-6.09579615379596,-4.756949571343368,0.7707688064351387,1.4512546569546128,0.4493070514771025,4.138995709257877,1.0547778142766568,0.11767869524555663,0.20991553398349078,1.0
-0.05694045872479299,0.07173101017055794,7.110501148710009,-0.8613648881656291,0.45834628127575205,-0.25755157114530397,1.1553004115216927,-0.8109756339257229,0.7597968056384244,-3.835668394719846,-1.255586883038875,-3.261418582479551,1.3497481107073326,-0.657146933662137,-6.391672149669231,-0.9303056978544451,-2.691899491315053,-2.94259343352527,6.711060138031275,-0.33633835363451275,1.2226914807693454,9.249526735226624,2.138864763639714,0.6622501856957386,-0.8604840733828353,2.4380517645833186,-2.312750877003331,1.5825549693125323,-0.5480134401447752,-0.675373238803288,0.0
-1.0908965899727685,-2.1871789071368273,9.995838717677936,-4.977671826958124,1.3352127060289662,0.25459976987091937,0.13819063678401483,-0.11053559700768201,5.766136937727956,-0.5303104157498564,-2.5591472667946595,-0.9425104063317126,1.156958072906028,-0.0329182322177084,-3.1809487071735623,1.199875483780683,-3.7439317407554102,-4.5386045880477655,6.285671969581104,0.7943011319770064,-0.019435381885638647,-1.4333203296513035,-0.3464671035741187,1.0904847249076397,0.9726176427077422,0.9412211301909674,6.050094971442332,1.2176981441914152,-3.5414653900669055,-0.18189191851337158,0.0
-0.44466906769890485,-0.5825821944611862,-5.107555613080299,1.2309208045197508,5.072035917268237,1.4325861182252961,-0.6227475600019066,0.42610313098339714,1.534643045689366,0.951718148172,1.074593605334751,1.4183480188775146,-4.644858884687784,3.1030628328005037,-0.46618106499207596,-0.45067901649773273,4.399328447036449,2.9186616466485362,2.6859376562956454,-0.5580863501366736,2.0473543706364286,-3.2408257577062796,0.028400794227857684,0.5826808130151858,0.5205018830769746,1.4641896321202421,9.363411248743704,0.040614086965532745,2.9539228254323264,0.6321209472278112,1.0
1.2254705453144694,1.4476694720088255,7.626173331033381,1.7099403144952916,0.1379577836192185,-0.6973091506990274,-0.9762464514545354,1.1315784515395237,4.0592834435721565,2.1103972273513234,-2.8101681620972587,1.5959522870558156,1.220126816992512,-2.3090023927698753,4.346626220067169,0.5369756969437411,1.091448605399994,-4.075676909233575,3.1868299629289325,-0.18340998729204272,-3.4390654386395623,-0.3606436931237135,-4.043805772844626,-1.8155416295253364,-0.07158347160249721,0.3798250299593833,1.4154056821127758,-1.6095209830809794,-3.3165337519640774,-1.0055200145152972,1.0
1.2853852790142708,0.6813360614395221,-6.359769492298487,-4.5219581862744445,4.199192272893622,0.12366149515126128,1.2433122248451696,-0.508562253275681,5.038437352565428,3.792993437125586,0.9827529291027262,0.5537986301451439,-3.8983154855731073,1.8719489578372268,0.797754148073694,0.9594405320830891,1.1071517718179265,1.951393571613257,0.12945423467006933,-0.6255806376880398,-1.1624355379918763,-9.648142077421452,0.17840004685188637,-1.496014557149427,0.43347283164237227,0.5283398715597847,13.205986496845561,-0.48398711628087887,0.11996016629874284,-0.3984361593487791,0.0
0.30983759319992266,1.4127048172844305,3.135073909526737,4.4186870277389545,-0.8432217270908147,0.5102763111691208,0.8157651649899931,1.456328471979585,4.094969898843292,4.131164765087988,2.4679182553969112,3.292457207997456,1.9839226245235415,0.023882923246096865,8.41728899557911,-0.19678094887698314,0.8612121179163963,-4.883134375059096,-1.0026184492114059,0.6611027776811732,2.2072764962387277,-8.676257777940506,-2.851955559468818,0.8773505067396974,-0.02675124557413819,0.3074908560905987,-0.8396187359223055,-0.3003268458042407,-1.5921863059114503,-0.4009151935441269,1.0
-1.334160759004991,3.27095873241681,-5.367828176209512,-1.2265687377775318,2.486723235347359,-0.7231312980172583,-0.6744143144101269,0.5924779841207163,-0.4566659466937635,2.362276224759014,0.6566951977994919,-3.926987400288154,-2.367301564247085,-1.3022504032504787,-1.465190778367553,-0.40797147810125295,0.9787457317922632,-4.738291851469737,2.587290882281128,-0.28372750445327777,0.9524072098203625,2.3532995698606767,2.7918286938033083,0.9088124113499689,0.00397495651718248,0.11307191101633296,1.5039636912364134,0.2080550318240542,-2.264139854418412,0.5867973779847261,1.0
0.40146414186699486,-5.500604615584644,1.7682703312316377,1.008019380334408,3.4309877972384175,1.550630593257668,-2.6756846490362367,-1.2422492314691227,-2.770249687470886,-0.741673572652898,0.8006442197325216,1.6507552566742985,-1.7016386126577787,-1.0644798490960417,-3.545745649535141,-0.3877617827065225,-5.1661079698642265,2.8805149721379277,2.6016946551221087,-1.4524983970876972,0.11779938368960874,2.2083538338490007,-1.1086225712238478,-1.1412362168447279,-2.034248859510923,1.9182767723471374,-0.35765842719824026,0.5140481406864676,0.6351965170187732,0.5216912595809831,1.0
-1.4112550051696995,-1.5739348177510877,-8.836039962183259,3.3853206335157924,7.566723566267993,0.9672729750616863,0.14494924020545913,-0.11687312836621294,-1.4325195798585035,1.1010000058019433,-0.3052719293296654,-0.1746010698795082,-4.302243380850701,-0.13759353713277522,1.1090909407364606,-1.208590524242342,2.5423546527288092,9.287499732864,-0.6152575557056903,-0.13679690475734085,4.6025588483874795,-3.0932481805993444,0.6560925706888303,1.407230011383635,0.5287746783588859,-2.318581111597396,4.782569743162125,-1.37388911758857,3.158887704793072,-0.6262245956364498,1.0
0.588500786261195,4.387214873630441,5.432026690944806,4.703108267046583,-3.1005140800589626,0.6103736997252851,0.13791652091806014,-0.9371170452387332,2.5372825385455666,0.10205280495222158,4.491117769406011,4.087054687269266,0.4646855804915617,-1.5376640429354336,5.752591688415663,-0.8295075588820175,0.2028194980136665,-8.712641632194194,3.880373546412202,0.6668723450757911,3.1652711786121976,-0.9988617864722409,-2.0376424939662225,-0.050463047402838246,-0.32516273242162486,-0.9175827822273884,-5.971509953562426,-0.6503156798620929,-4.190839260572072,-0.3370574860446252,1.0
-1.268691976843173,3.524666467074912,-5.849974727784079,-2.004699510520311,-0.06585113489761918,0.6593081195113274,0.6034810103015367,-0.9216531197782624,0.17407641872552682,3.142099900311112,-4.165411063545818,0.4892153392396661,0.43958722425885655,-2.680408301971152,-1.321886302038952,0.17557206171548811,-1.3384572151907708,-5.296135666855602,-0.06733581638146524,1.786597023926696,-1.4359474038395754,-3.435603699805714,3.2942930380707147,0.7983480513491078,-1.7445649518980362,0.7841151821090483,1.8853589498219343,-1.1047263050976748,-3.291336161938557,-0.4162102138395885,1.0
0.9738462572598192,4.5941359357454905,5.07672041393564,1.3752043087045798,-2.3075551185018233,-0.1698196855231585,-1.4360915125350566,0.2575749708891946,2.441727014210306,-4.418500888035835,-4.964677777556098,2.188439916006371,3.670226300300529,-5.536453936874339,5.071346856342618,-0.34670953287600176,-0.9783275693939395,8.313640425813384,3.0623598256341893,-0.7468482589920851,-2.070705431737797,8.44358600704616,-2.2879162139106093,-1.5004677127830177,0.28405657052987027,-4.336198800758664,-2.7758219147807144,-0.8214848566236752,3.606334494011635,1.9072978364265534,1.0
-0.19848445851506097,-0.7248242654772794,-4.861291969181577,-2.4569830557405736,3.814886598627583,-1.449150523112887,0.5891181787726557,-0.46465945220454163,0.1857311779949018,0.030859447176201038,0.33978059189220344,-3.008270107016457,0.6511569422253463,2.5572655990808757,1.386669676676965,1.6012983317775875,0.7061508463840624,5.497662672336051,1.126520294240094,-0.8818966215431343,-0.2698525581122636,0.08318547851916448,3.975996898067999,0.24778718105208195,-0.8104885823733168,-1.609430586193664,5.356988459015739,-0.8347203094498064,3.1766676409635917,0.18685970223206844,0.0
2.208419091154705,6.289465938193675,-8.742438948058041,2.533031056940965,0.2634125052827969,0.11758168066188653,-0.2169149904265378,-0.5276851944169594,0.19365193723638852,0.6869072814291197,-0.1464209050237808,-4.130958812074944,-0.21245482131824445,-0.5525592635069109,-1.6016159520967321,-0.9752409251002728,0.6066779989885109,3.71275704814533,-1.1164184059547124,-0.5943498527396046,-2.4121198760298874,4.051756408380532,5.55001498868829,1.7344330917873865,0.7030651467411015,2.1440018705015933,-2.9534630937641047,0.25695743818394445,1.0001620510572797,-1.3400568903608094,0.0
-1.2590656259307462,-0.3568845531329041,3.9493587586921595,-2.1609892691971284,0.9762615140682072,1.2833791650466513,-0.403437698621358,-0.5941156304879845,0.2718435971759505,-3.0505448057471147,-2.3427074861838895,-1.122851610622566,0.5595331436292843,-1.3107353423049157,-9.183908890021316,1.199336780928251,-4.6629013663983825,1.7409074389310808,2.580488825551433,0.7870165696408917,0.9292878892595942,5.653972635462951,-1.510588170280835,2.205529568265414,-0.2905984773431332,2.643570224513265,0.722944728939056,-1.3926487577832536,1.2735775282633592,1.0237763016208163,0.0
0.8063654246577088,3.6662120988169242,3.3801512020424416,1.666813400459736,-2.0755649021640687,-0.8302167188922722,-0.6718674108838283,-0.10266860856592804,-0.14538962641409214,-1.5829114115323457,-2.491343221036148,0.9957404371505414,1.3404973095219601,-3.2314265656924164,0.22581590168694096,0.12983191628803234,-0.14190355868343474,-3.752181950320691,3.4354902345919367,-0.600511018185164,2.196703219159679,5.112006214568335,-1.1851618985495194,0.3131117685738916,-0.4997204994197924,-2.2846165398981837,-3.9728679335379224,-1.2763359206265377,-1.75367323653867,0.057602226005241515,1.0
-0.2110686698851942,-1.3907226521029674,3.337490376997145,0.7023956664803822,-3.302574947788692,-0.7379585563250161,-0.7574307747527896,-1.120812106888977,-3.291633452912228,-1.1870475572086037,-0.6156670414776506,-0.9888185891067812,3.0201927861714033,-1.0810392003544855,-1.3301864818227516,-1.3716446439538834,-1.7114206446750848,-4.294834036734191,-1.832266868306078,1.423754075307279,0.42238255492523,3.0897133594594326,1.2406510439908467,-1.7164831767444462,0.05658018930545408,0.8298806892379154,-8.191693158174672,-0.576601776742971,-1.2496545443261868,-0.5355570796987947,0.0
0.7353411541977961,3.104262155383501,-5.515146014753124,1.8801792234013943,3.7118092098085085,-0.40666844187691986,0.2890220506054031,-2.2456704382724957,-0.6881235374568848,-0.8051714754505468,0.27138410170163474,4.262712052265507,-1.5549632063642544,-2.239302976366643,3.067136094781028,0.6187258381044658,1.7746201282464096,3.563260696466343,1.830401339520401,0.061908104029996795,0.8952663962474494,-0.3548665317004221,-0.5846353121594536,0.5117789786504942,1.2079940398603866,-1.3288220487575735,2.7065267423299892,1.5812719516191547,2.278223573300809,0.29556060178674576,1.0
-0.40609112889156374,-2.730503369188208,1.217492683916275,-1.2871230951246766,2.6493008278725387,-0.0850731748251321,0.1844165694269777,-0.12050819676589646,-2.5576105044115165,0.4924933798032852,-0.37772131266923936,-1.767023666610645,-0.107291285683075,-2.828834676310053,-3.9091242340097554,0.4846907796184085,-3.0897091064065823,-4.894676475705126,0.7977794757621164,-1.5886881303775897,0.7240560331503512,1.5729626543770707,1.2986104148788793,-0.2772031153416828,0.46644580083980597,3.071080608499468,-2.51969482272517,0.23125774718408365,-1.9769885195569805,-1.8739700756824453,1.0
0.5032602265255054,-1.3231260482389442,0.01800729261933056,-5.723686692801507,-1.611913779172768,0.5162649162799985,0.5925553079287688,-1.0898435850204755,-2.4298736976924746,-0.7874174852544997,-3.6736759440916313,-2.1948936410253896,-2.5073470706294394,-4.734193956209511,-8.861863091457865,0.22036754883800364,-2.876875784687603,-4.613929580385659,-1.1890691692472486,-0.034665569737606684,-0.32128253960718134,3.7143663946550514,-0.01540008208407273,-1.2949773886349234,-2.9893930211632136,2.426207702931042,-0.7991433788356886,0.5823769459527517,-1.769622619777113,0.7288186376596363,1.0
0.9387236162381593,-2.4231996066928474,7.218979341194249,2.415295469360939,-0.649063761527497,1.7461537795510573,-1.2369989013620626,1.762127663079091,2.910349516109747,-3.7867051087225496,2.933308166327959,-1.6610397118485756,-0.8503916014231441,0.9717293912892404,5.9535232457629785,0.7537356371784484,1.3040165730964763,6.034533011682369,1.1754841737384907,-1.2231388144094233,-1.1207355509610255,0.7088441412115778,2.1535332065426167,0.4986048184872299,-0.8306215805446449,-4.494362941580215,-5.557934661282307,0.16548939312256028,-3.3469822068797135,0.30695075011252615,0.0
-0.2330969210371493,1.2005834629109495,6.71819794510473,-0.6615451353129376,0.3066775390320704,1.3573246619264427,-1.648975837891303,-0.36410622138921245,2.8535463099536673,-2.174144924560384,-2.2920958709157064,-0.07681184679361042,-1.1466637474363617,-2.5924168415425237,1.191758747896513,-0.137963098743159,4.476553526135085,-0.16303390900762135,-0.42750791647609576,0.5481263287272902,-4.1997628529378215,1.2102444153109586,-3.063289428874901,0.4935160352028785,-0.651807378073709,-0.04081266943890216,-0.30699675368467527,0.9660407980573626,-3.183859404636798,0.22776700140487174,1.0
0.5314896881466579,3.0947584704744973,0.168188409423221,0.4028379559819224,-2.1750993132215073,0.1693750512716112,1.667012705357071,-2.5467321117621853,0.7916304395442721,-0.11581152573856546,-2.133141794831534,1.833549618669404,0.5767835945179562,-0.9181375692174549,-0.13422842222283687,-0.4732761521782438,0.24472707661759996,-1.8405014883133928,2.297614192676786,1.8348201445867027,0.981945699799846,2.097883131092997,-1.3169176047241522,0.4437392912698055,-0.40600066390849227,-0.7738490448133462,1.112882330009095,1.3207501278261604,0.8080212832741205,-0.7350729836273578,1.0
-0.15784202104008319,1.6179773520346301,4.891000952207558,1.1025299973927352,-1.2753208572133046,0.8458396242433921,0.27835816644536276,-0.8972549274981164,-0.7106012524943779,-3.132586886443354,3.6229594564804524,1.4776243133748985,1.3008622215515178,-0.42321189242499413,-1.21870730063145,-0.6781524611975589,-0.5902874653008059,-4.953981383753883,0.9007154594387472,-0.5360817951208534,0.2056847507744537,2.251890629306037,-0.4323348605737951,0.7462485394318988,0.2537067194918132,1.636494970447366,-6.542408203685429,-0.5666319246194422,-2.6773039151772626,2.8917029899567672,0.0
2.861136567633684,-1.3024823587403587,-5.0608443337150835,0.13707846474697027,0.8820088033280534,-0.34306254338566294,-1.0345386308482871,-0.34598083090249077,-3.055340435151226,0.9942345594752289,-3.300300513002441,-0.22749394217106778,-3.458205062607433,-5.05712443049854,-1.6230474008136218,0.993334501607768,-4.20237912965524,5.297368455456039,-0.007021502324137785,0.29827110460098805,-2.0641828016203725,3.1549696547087023,0.9123487119381261,-2.0711798825804664,-0.15250007015031203,-2.2065304838519686,-1.6945115996501885,-0.3266785659089869,-1.4008953927308285,-1.1357508478582938,1.0
-0.1610903772616734,2.405428837690365,-4.318637559192191,2.0544894406294594,0.4503037220335222,-0.3907319144081885,-0.1727368251670042,-0.5934726757363933,-0.29073964770483496,0.2474440229120416,-1.6772679678202114,-3.580825401014989,0.12497998885111117,-0.4696775461819409,-2.068138758605104,2.6381752566205994,-3.9073220263986093,12.342989636325807,-0.34882516686863063,-1.374371404295248,-2.111802203765087,6.865285213716506,-0.7548044060877466,-0.23351245758489844,2.768892309627609,-2.8003835632653327,-0.6790440165099157,1.7485759140585337,2.890694267917054,0.28191878812631216,0.0
-0.37294052043013654,-2.4471895543182285,5.761114470836771,-3.2642670470731936,-0.8143741528748283,-0.07164688581164837,-0.6347318902666053,-0.8717706880415772,0.09158607210301917,-3.817368540483743,-3.112014364911308,-2.6877262821408765,2.9454330455855606,4.198883280451799,-5.359442658413262,-0.45638646133747546,-0.7328116244905563,1.4973586098221319,2.7614420022153334,1.8483506292674268,0.177068185235419,3.963308072807365,1.645239147362068,1.0817216943950938,0.35229044416628635,-2.06724492416099,1.6719627944721551,-0.5415090004462412,-0.37696736996445845,-0.10429851137772668,0.0
-0.43720744694788527,1.2055450872788032,-1.5649924549555194,0.914778509486178,-2.215138422347034,0.003209867763497622,0.8895412311690245,0.2267116863405662,1.3289540869226975,3.2987892112113153,-1.112965322866381,0.8902661802752416,0.08164433193509124,-2.375643546344089,5.7334771314255795,-0.054459139460565284,1.5768763921974935,-4.351798774367238,-1.7292857413879794,-1.625781598075184,-0.10396561745532296,-4.394259925877067,1.030746139294965,-0.6928651234720118,0.14294961011538876,-0.11992063676714537,-1.0234270264845455,0.30643883425516816,-1.2610862055957441,-0.7724149910105881,1.0
0.14490796933090405,-1.4330570161049847,-3.8005438845715807,-0.8523242372074864,2.8334548924911234,0.2902465656670324,0.970804852537203,1.1408632156107463,1.0048367153643003,5.186082534670062,-2.5103185464372695,-0.90120722026658,-4.361584694362506,3.6805642801900342,-6.403951860218163,-0.9601287386482825,2.5077199421327903,-5.059405743085249,1.0476054208212646,0.2809633211650989,1.2207489942958765,-5.200807528114723,-1.8601257803555016,-0.9264670182411171,-0.5106986135097646,3.1104815808848567,10.408144815702432,2.043025801848989,-1.7361921946859362,1.857928760058249,1.0
0.10525970102333387,-0.06417287725656973,5.577096883942128,2.375267221163349,-3.572322077494973,2.4372425759242193,0.061156459935711685,-0.15554946862932667,1.6552063476976842,0.2900394829511206,-2.564997055869293,1.9392423623311874,0.08116119530391153,-0.21425257955208854,0.6533172206982407,1.2297551305579804,-0.13682167624890096,-1.3562821849450704,2.4961921590897713,1.3882009388541612,0.2812649048688889,1.9853780839996293,-3.442551381526486,-1.7091635551904558,0.26390311721875853,-0.9460053245539704,-0.3264449307564525,1.0001293357539818,-0.5553540469318574,0.7243545112656794,1.0
-0.9279212994516468,0.5200074219368391,-6.5768857692298806,1.9143466294357063,-1.3594899901062774,0.4890838781507426,-0.2764897555867528,-0.7427748445287092,3.378453600503951,8.506827653886706,0.5763354832564718,1.804861775254747,-2.5849629934816387,-0.6837580419487916,9.737355507308362,0.3803068424015443,2.1219755657728383,-3.673350045945991,-0.8023947624600716,-0.590674561884852,-0.1931560527154329,-8.717628006568123,0.2221970273254975,0.15087187127547017,0.29327496526031455,1.0765372020135464,6.112092569871619,-0.049204916173368494,1.6404833352502193,-0.5733398392159452,0.0
1.315094010107804,3.1013126740469863,1.2296427095522555,-2.6631442800602327,3.050007337961199,-0.09387455497335931,-0.08471043286285353,-1.7290991774320505,2.7571111847021985,-2.3941884664101183,-8.067708728981877,-2.9748963278092146,0.022110536664920577,-0.27867578129726933,-4.732621241055231,0.24680931818085258,6.528671563835657,2.562117458246787,0.3659745235973151,1.284590718685139,-5.597438052377522,3.041083443827783,0.8876793047187771,-0.4996135932227324,-0.44721781472885597,1.5869756803406063,5.914208664494805,0.10653496705378047,-0.9959298013776963,0.14376464310858494,1.0
0.44051960638091603,0.12519087757917058,7.778271166860115,3.4736573464383906,-3.862115563215097,-0.008362111124060725,-1.6278859389552167,1.3009415130316988,1.7072391207130941,-1.6959963346647142,-3.82307553083693,5.779880385855392,5.299381852073415,-1.7341044626818527,9.894065019479418,0.11867908406769122,3.771322388210835,-2.5619246022213105,1.7357315701134506,-0.9189691210547781,1.0621636582987206,-0.3351664236530645,-1.5457743665981947,-0.028551984535682258,0.4614248329585187,-1.2570319628961841,-2.2754768933466054,-0.5776142178649032,3.440774785672884,0.6473326855134786,1.0
1.7670244943958617,5.349504756226774,-5.587604212448668,0.26191582583485684,0.907193000583999,-2.3686912068521586,0.5624237301311782,-0.021345302172413684,3.8286256439790547,5.479349200777055,-4.403582555900806,-5.381009302246398,1.0907661840793565,5.178218768821315,-6.8893882606329075,-1.1187661628138466,2.9447148570608515,-4.187657472379192,0.9458574623411588,-1.0642447119332241,-0.022015427599740955,-1.0119475656215657,1.6951905595728904,0.7916542060935255,1.04384544217267,5.061689241216943,8.914452933058364,1.0197765271882882,1.0531173792797892,-0.8527621652336447,1.0
0.6399034009835328,-0.571999109004509,-3.2880772687264197,-2.9856071407002513,0.13937700535735842,-0.5726816401592988,1.2007589615369068,-0.41147117413796075,1.699424210384732,0.4429968297202199,-3.1516542476158773,0.642798533482899,0.6557447206619161,6.118749702578002,-5.348362501721808,0.4145943505406158,-2.2085508663318683,7.591447374058085,-3.0515210027720867,-1.3158857423262387,-1.5580724492766338,-7.822698120415859,-0.4965541308816124,-1.3560364451447344,1.6673823429386165,-4.355772734476405,7.27657362838574,0.6716981838212592,-2.7118687321904527,-0.30705831890871205,0.0
2.0136989173313573,3.4452475556793303,-8.053349372438014,1.7635946928927992,0.7167284780762713,1.3926548882840513,-0.9804695349218977,-1.7249168959418097,-0.17087937681900423,-0.04500019169923908,0.5378301011062647,5.097405628920977,-3.4014546811701343,-1.4364402820224278,0.03456306550398986,-1.8680018866707437,-0.023811934652497868,4.745338159095412,-0.8537633056082858,0.5622502831697198,2.1957692688964805,-3.4833751277476477,-1.3119905993121561,-0.3850368024262208,0.5983301738078541,-1.5017876542693105,2.735524515511837,-0.686936417944251,1.7537509057102874,0.7644782203057904,1.0
0.6245823093172438,5.200193642656998,2.554188842266688,5.69049152627663,-0.2851624775043158,2.5416198467187923,-0.7313246069486086,-0.12232338213274517,-0.3471649950443445,-4.371503919928484,3.1407183150791234,-5.717133545174463,0.05980991818843173,2.469187927181128,0.5523105893717877,0.22799116370906097,3.7687058670217963,6.179867996002236,3.785181657959696,-1.1010330858836441,-2.459248353758153,13.890681631094797,1.1686905252465405,0.7062309747670698,0.7033130614575919,-3.2195956229357128,-7.809808642699685,1.6463683960749977,-0.912223590449924,0.18010546746541492,0.0
0.4126650231818217,2.2411219315842743,-7.523582380084813,2.7417519350730384,0.14381866453487568,-1.0254636745111536,-1.5060888450601755,-0.49529607088106914,0.4544901567031745,0.09560263778893718,-2.1938400052525218,-0.410808125884231,-4.970490627819538,-2.9232592040332577,-0.7143827739666209,-0.17516373577895686,-2.269346852712534,12.081401547386442,-0.5724249468316087,0.2876976070117176,-3.7839819208083534,2.4772955027816503,1.8889287240901989,-0.09189562541568821,0.20451600281122595,-2.6995179937504763,-0.8256943584677083,-0.487357365983966,-0.7466743991261744,-0.19714738095841283,1.0
0.1378957758749067,-1.7600594711021187,-0.2959176471409837,-0.3060722855146554,-2.5679324298084145,-0.18871159973983392,0.30559812717284496,-0.5483991391083297,-0.9080228820060495,-2.0025481098549847,1.1565797214177584,1.4781503011555093,-2.5684550842279097,-0.06852431631358025,-0.5548935795508246,0.2262633165688082,-1.0846016078801102,0.5807610532792883,0.008443211982348764,1.9566099625857163,0.08541022829109579,-0.780284429241669,2.469193303758302,-1.1775186159066409,-1.9076118069567995,-1.5904161987186356,-3.0006606182903433,1.0994870253330813,-2.395910047202495,0.790721018540406,0.0
1.1262461801557098,1.1821230004844465,-0.4312604847566209,-0.43833658631644234,-2.419338677760037,0.7295193509862021,-1.1815231616646271,2.1356261011732305,3.0153397267555024,3.8882099203389604,-0.43527099584916906,0.8163034294891656,-0.22922359315511842,1.764890610968863,0.9087683013540956,-2.314456078778476,-0.24427086065061698,-3.414282989217101,0.6295929661972318,0.648943606259271,-0.29120930202510587,-3.713942405752321,-1.7602505566177045,1.6982903924269561,-1.3357566625066817,0.8485571119630233,4.8707601848623545,-0.510120739478876,-0.06610829813981955,1.6403972809330398,1.0
-0.13351212288434067,0.46126497258008914,1.7367916202722737,-0.3030747434886174,1.1117224508059413,0.26723195084876283,0.3198097102399178,-0.26432148874017936,1.046504427388832,-1.0406989481738316,4.610046748205303,4.237415277219738,-0.703871223964025,0.8050656077255425,-1.221634657548747,-0.34566637467600275,-1.1871371293291415,-4.393885351382402,-0.8073123124255963,0.14368044501773122,2.2975514528842305,-7.277227308089857,-1.6916386464282307,0.128628690654427,1.2802152727174614,1.0147216280126716,-0.6532308880539633,-1.8033172536887192,-3.8425820179209382,0.36176199210385035,0.0
-0.3783518825997664,3.13260352938416,-6.167715954315118,1.08234092664827,-1.5603987837883753,0.3324680837588702,1.4898026315713533,-0.19884974351765108,-1.8271074363087991,1.8095634236233438,-2.5796540716747978,-0.20235279808167794,1.4558320632019466,0.285002620961492,-2.187825691192696,1.282135740360131,-1.4757509692226372,0.9611136706595025,-0.10569615776818808,0.14531805532573783,1.8833958511816609,2.391492110743351,0.33454353316439445,1.0065957152776999,0.6802154559028234,-0.650270743443086,0.8882544972274424,-1.7078379261395442,3.0045484898509303,0.05053634279291149,0.0
0.055042557281043424,5.827276822772982,-14.50741433238088,-0.37999003018630395,-0.21333347307039696,1.2803323038717285,1.5790894560712077,1.3023407448537614,-5.30167748985966,0.32257016812044026,1.0059810954993191,0.96208612683647,0.5435094336768305,-0.9787105097655439,-8.832137764812678,-0.14265419808920418,-7.065133772522548,1.4252702626156846,-1.2488570414745457,-0.4763977606015151,-1.2009101295398519,3.406422343588117,5.074004796338949,-0.44443329292291694,-1.0720580618430398,3.6397936349720816,-2.8056287975391108,0.7388232834503655,1.8438170605790805,0.22525845349509843,0.0
-0.7963266453295174,2.2065302153581965,-1.2152461458778707,-1.5967819246831185,-2.0931523805212398,0.39164023988893254,-0.30965981218568894,-0.8694327480368637,1.1515838798497402,-1.0141780358381904,-2.8922559465409883,2.508670164926932,-1.1199198157109216,-1.4542726447365766,-2.440323748650097,-0.26935210472675786,0.3413748058461107,1.0389551382195281,-0.38132328631640977,0.16781324467578934,1.6803626322395426,-0.5371630444958401,-2.2812050108546726,0.6764786687730411,0.3985640658920072,-0.8168189240311363,3.190062394584193,2.2123906375910085,1.6726284614895413,1.5814637234833284,1.0
0.3830821570448189,1.8809620895592403,-7.235744880902648,3.7571208291275955,1.488596690840014,0.6299808403475345,0.46577331849082326,0.5203797258851188,-5.61477768092889,-2.2544025966836854,-2.0439664731404994,-4.485235582856152,2.1439187758219775,-1.883400094784851,0.405635035161195,-0.3429651661566541,-1.4256777409292976,11.239374707754429,1.9066323554942501,-0.8047593466187392,-1.7520052538683912,14.87997381626157,4.792853863284481,-0.8692523552159166,1.5573768174035763,-1.4872051063274616,-5.567632597480947,-1.0573978577438974,7.26323833673406,-1.1464003067177844,0.0
-1.2910395748499208,2.429399540701586,-4.966179003018101,2.9704197696762806,0.21546612769271323,1.1917378358214277,0.6725196983410208,-2.173768904413992,-3.2932374995722706,1.4607742736152356,-0.3007292141206859,-0.06311532903763173,-1.3631333348814607,2.9870293278014683,-4.605686777911266,-2.33817245369327,2.808456707634978,-3.9686556675998235,0.1467251704631536,0.3285698496773193,1.564602351435759,1.2639578819024022,-0.3445439282394882,-0.12452242443886458,1.9127268503065222,0.5877073157131012,-0.07955339634179669,-0.06771719735270462,-1.5927862797180214,0.2921972948833408,0.0
-0.5104422067665509,-4.047321118503964,2.4318737912671198,1.0898052156917588,2.2195376395378212,-1.8917143889714996,1.022512793696016,0.6694161911868851,-4.053668107708571,3.3629357518216185,1.7167407761095297,0.10479539623511314,2.0812604066418987,0.8849581730568872,-2.8322943443206503,-1.5833055896271162,-4.573352249186153,-11.275732940685767,2.403135296040215,-0.3771178736934479,1.6916109422774275,-1.5067040783616255,0.7268857262923125,-1.7959914814097162,0.9813839922750334,3.2603951550720986,-3.2449861382804626,-0.04025289842082823,-4.567415911381955,-1.475411401094023,1.0
0.3142827550730362,-2.149279785532105,-2.9068511572010576,-1.753539413841029,1.6918166783002562,-1.0436144101356368,-0.29430500986020125,-0.04474558475598321,-0.43664863650015895,1.952702361461355,-1.0846557717076721,-1.5655311161883105,2.529735114535705,2.661334339418407,4.839521174568805,-1.955694907320995,2.2432247482832426,0.6691033257201837,0.06675529468391395,-0.1874369753108615,-0.6322735084191444,-2.1873018741250574,3.375176570679293,0.8685098671195047,0.22914683449911255,-1.0885624201091866,4.576942893022279,-1.0307129312661192,3.032005256195126,0.4971548283534393,0.0
0.030747583087498632,2.5736124527298303,-4.701930494249625,-3.180648954082299,0.5646374827390783,0.8108631155983491,0.3348381950246217,-0.3941557711847975,0.5929667415077209,-4.104697638705975,-2.452336344084922,2.122674189651028,-4.523341057543726,-2.1381477890179754,-3.1008032561938292,0.6423725916415679,0.016033375629097013,10.783914511494759,3.8088303809890682,-2.329441651122576,-2.5498689809341273,7.184244818906142,-1.022463959666489,-0.8443284487895042,0.7600229424410339,-2.262048314465157,7.108614601452185,-0.7743014221048548,5.0617628773307235,-0.5743824504629396,1.0
0.032254229060957,0.19936758159133328,-4.461555130517064,1.3503633974604492,1.1373302007999442,0.8267029743814808,0.8347497226433022,1.2715241476539387,-1.8900799714892855,-0.06530116290038346,0.021937450199946307,0.9392145141195152,-1.0639290485850434,2.867156080381048,-8.381162360796035,-0.25291677271931917,-2.8898611861675407,1.5518946864860563,-1.8226341736901102,1.8166061635554727,-1.028332492444872,-2.4978387116207523,1.3771144439107337,-0.8232960692577094,0.9502571938685426,2.6539694885831606,-0.5225947202907367,-1.4416451465108133,-2.653156893460852,-1.0038497270308853,0.0
0.7683339922903146,-2.2732486175977726,-6.127345776751161,-2.6819455436401936,2.482999592441362,0.5564217054585403,0.12865294795421686,0.35772276947224163,3.406035943122253,3.321305448415349,0.7077345098393735,3.167292594702947,-2.180889488520096,3.460668848366834,3.701186154493146,-0.6511028970140703,0.667934637299711,3.8925415586526446,-3.4033817466656338,-0.624398280253579,-2.569587751978776,-14.746600342691508,2.0605628925772743,0.19335277959831482,-1.084070484904229,-1.1362098390361945,9.168990498472262,0.022102749849855868,-1.8535352297908747,-3.099670522783271,0.0
0.8986178395986469,-0.45699458959139283,-5.05658452159559,-4.336388504055675,0.7022567899340257,0.9791854355897333,-0.08094820624384338,1.2432343304794637,2.2067338385879536,1.1746391651796593,-1.4092033765501621,-1.2791418042150489,-3.043077291657988,3.052113648028398,-9.255799371572143,0.44990022940939284,-3.268048953927889,-1.8910133366424628,2.6161551669956298,-1.3683630920540222,3.231621775657838,-4.227176296157972,4.031556746910965,0.6377194971819161,1.867224204312315,2.1130148052794913,8.188196833313988,0.7071861850500949,-0.9129955332763056,0.19948529944291313,0.0
-0.9068077260268592,-0.8144475707880932,7.156826572044693,-2.1372466055629533,-2.9047620560371463,0.41547515150624903,-2.4619797058899167,1.3091366419632775,-2.413636177214637,-3.805921548404104,2.468034394733202,-0.8594685066335137,-0.6632280859165183,0.9444819358466165,-4.285788031929373,0.6276112125924505,1.1288908794796915,-7.938695654596599,1.7938256871372098,1.5723062561857772,-3.3057581892243006,5.841022954171309,0.02509931673731025,-0.8903770582600778,-0.05936745123140444,1.1443200601853678,-5.868390744446878,-1.8688030582824706,-5.585544235697832,-0.9009700184262551,0.0
-1.5122979916839956,4.380570568714431,-7.168594163940277,-2.5397484320246884,1.4064128776436131,0.9197484789904266,-0.4227988546098636,0.08270000363857032,2.8486290393672666,4.061850043541606,-5.892390498212513,-2.717880793050961,1.6030477510505716,2.254069547854179,-4.521244795238247,-1.5066128291433938,-0.4669207285952589,-0.24441853509665518,1.1971520459518086,-0.7963744750895091,-3.4406335909170074,-1.985613992500374,3.7345647409327998,-0.7134743181070387,0.824451800227485,2.2723284175191454,8.841511294122665,-0.11922435626590437,-0.023411171004999565,0.6596522987772498,1.0
-0.42867479688130566,1.5092673371560994,2.0635780702093403,2.280084302112834,-0.2701712195819945,0.23053712782830446,-0.008585201859605372,-0.2521534658435748,-0.7642974724171575,-2.396716237496289,-1.1984918236422404,-1.7163875651434564,1.2975941703204985,-0.685835164308682,-9.564206000799485,0.3373630663468662,-2.997132336850314,3.0173395409352612,-5.408020115506436,0.09293023411398735,0.0021249774701472823,1.0638131324807953,-1.955232022761547,-0.44694772758266543,0.3982209514202937,3.3190415200519077,-7.070570703874973,2.0180773827178204,-2.232951455279242,-1.2174801872358345,0.0
-0.1633079550015069,-0.5953593699569963,3.75966564657262,-2.3236356096854314,-0.4764087230375613,1.1635258596263263,-0.2554504313815159,0.936102435196951,-0.5059504979140907,-1.0677365753036283,-4.134922074510602,-0.3432924741724044,-0.13629230065686582,-4.077056278422122,-2.0223173353670942,0.799611626056244,-1.2123948546469694,-1.7749674779998696,0.340633533563927,1.185829198742175,-2.9993905401081267,2.5087268957046125,-0.6036761171491611,-0.08062880844981013,1.312084416107226,-0.5035641011164131,-1.868546464121674,-1.118060427981828,-3.611974022032973,-1.1596206115397987,1.0
2.3210039960618047,7.882576816395398,-11.53483987619023,3.7332609687660376,1.3934050469982155,2.786049937813325,-0.03927330695157529,0.1596082474008315,0.08853368411521911,-0.09057972781965684,3.82686348927384,1.4062957676105778,1.3607262629831465,-0.25055089472593883,-1.9228588577828813,0.4805186781082244,-4.069435721647988,8.803098001772426,-4.465836904751233,0.6034780416679837,-0.16263797923926193,-2.0046996418172514,1.9650509677248347,1.5383304390525525,0.9958934155892449,1.7928513024292099,-3.3792100629561515,1.7660503040522877,2.8306620250789845,-0.9079457135226163,0.0
-0.24428093977653406,0.8094035202751673,0.9011218920310451,-2.368253501828437,-1.4549653705391439,-1.2166592125268512,-0.8434015484570375,-0.3049222123573273,4.440250634181076,4.419316301762968,-0.9438136949502319,2.643088508005322,0.5586945970292646,0.2113485289336432,6.691659533618851,-1.6078948064290692,4.685841401129729,-12.492655418722835,1.2876466734249072,0.4342960759953601,0.4143317616855191,-9.438536901833409,1.5124999800284744,1.6289382256435756,0.2782989791278315,2.576661481387576,6.464070890551597,0.6992305807201401,-1.4278609700083496,-0.686336846934825,0.0
-0.3219843664592515,-2.6337092649825307,5.167628007386662,3.4733026074080833,-0.9995397538762154,0.9205982427118157,0.26458453602911114,1.2654455198916539,-4.283101401390499,-3.1229138546538326,-1.1547878506916955,-4.354274059662828,4.780425793964105,1.2455049498218285,1.0221731044543882,-0.37453225938728335,-1.7054002424549628,10.504142325543741,-0.09261263524834984,0.1088037097054082,-1.6684726256303275,13.090628569857852,-2.309201625379762,-0.761429754425584,1.1248370601157018,-3.9161358979350083,-7.13672169646599,-0.9912903816403211,4.879356624929402,1.0013664562908624,0.0
1.558183630762687,3.9829290995819577,2.942650561009005,5.322430694676844,-0.08830179301001151,0.2599579936436911,-0.8429055643243101,0.2598832349192977,2.445840200662477,-1.1270562526538825,5.100463026415021,-2.000261370411444,2.784553837324207,-1.2317093171268252,9.20959630023526,-0.8208600201629043,1.2314294752979533,1.328525874876297,1.8273489338865705,-1.705635950162387,1.0129918666513182,3.654181273662462,2.083222543207853,0.053212197103539735,-0.7810089435481842,-1.4066200488763911,-7.956758830606351,-0.9458633078963248,0.656430204762366,-0.14162098301052742,0.0
0.23776116459489285,-0.6740604710897187,-3.371037716527896,-0.299365572259207,2.4080342916161217,0.7534043708791854,0.12132728274562739,0.3854694758482433,-3.8702771521281236,4.59596206760882,-1.9428935275459753,-3.3918878238982706,-1.2170873745202844,-2.054395855771206,-6.753157581747302,0.7540621272311238,-3.0454652071366177,-8.316803242033611,2.610560674376627,-0.9959479907832324,2.137488933779553,4.3858719491127545,-0.230737943032439,-2.0638850467544914,0.6131740018915679,3.875249651334825,0.8985864575451646,-0.28429011055333836,-0.8371817492044163,-1.4333239283806845,1.0
0.4768135950246047,-1.4865823649964454,4.088952031201432,-1.2879174772142588,1.0243328375762375,0.17454305995310235,-1.111505380701124,0.30900693277434826,0.678173516444788,-2.0156826728403083,-6.1467946274421275,-5.393094013789063,-2.9340408157620974,-0.6347268891084226,-10.302341755323846,0.08134888334676436,1.3937262186471422,3.787141839868159,2.0229194335446694,-0.48984194200640596,-1.6261338410976083,9.607498901312356,-2.19030226110723,-1.5736295710417973,0.15773520761168094,3.086257668884766,3.364027874047744,-0.2682981770580552,1.7272858301709597,-0.09547264428609868,1.0
0.1260623280034051,0.5585340497042282,-3.9077876783001093,-4.363454967681288,2.2377519787438214,-0.5507167881185753,-0.6914122042764048,-0.09634663149429264,-3.537187401467987,-0.12121266309517265,0.43166786939120927,-1.4524565635418254,0.23787748148803156,0.9784280250125987,-6.692960411765956,0.2855558895403972,-0.6262866201109295,-6.71403475546484,2.615155971691294,0.7779866783080691,0.7598609083214847,3.6035496438219377,2.1868897444877593,-0.6163654291823402,0.8809151690332453,3.3274388397639947,3.317184631966882,0.3066983736594359,1.0462029697810777,1.3015929980039929,1.0
-0.23959232465370883,0.09076385849473434,1.7115062530607668,0.9036998603146413,-3.111115903652398,0.4152725791132739,-0.5866727743052094,1.0365155835044346,2.543910221623147,3.2064019473334553,-1.7787420438905055,0.9595598829282344,0.39859894504149873,2.269931497484073,1.6437648710878339,2.2739410386772008,0.5577535172955712,-2.560345558031681,0.4438062082685591,0.008763484885367153,0.974660858349512,-3.5357315042379165,-2.4256719566991696,-1.1712161733772697,-0.2656218217805378,-1.2497738980871522,3.3977852813010534,-0.5636826623316449,-0.6660737174706823,1.654754358850542,0.0
0.8569962449162634,0.19333212806529476,0.22020755001042694,3.390780595903508,-1.4404650657502864,-1.3844231543584364,-1.0482511637190517,0.7686480879681981,-2.9613105382665257,-1.8868985391673823,-2.6476054370083832,-4.312683432966377,0.5968178679401386,-1.4255391202626762,0.993682453199777,-0.4143897919652327,0.4006913293253138,9.437607050229788,-1.4364163062192756,0.15121834399513978,-3.747678979416259,10.161226611261581,0.19775943052569922,0.18379937299342966,-0.16898649815484168,-3.825798498770185,-7.052185849173936,0.0767629503307216,0.8941114296918395,0.09450765304739081,0.0
-0.8291091806340453,2.6232406200326084,-0.5977500770616707,4.415495559009189,2.1037531859107945,0.35502561793492887,-1.9581754288830124,-0.9125077743940353,-3.181495963471561,3.075972752205039,4.0355724253472385,3.726299130654502,3.50048071466318,-1.9813010248695833,7.897950913946001,0.19774913553806917,-1.271733546363123,-8.918029494080884,2.8705462280601233,-1.6047549879109688,3.1547012741525577,-1.321393518580079,-1.347577777372955,1.2749773820208183,1.1364705083670374,-2.1241236684482496,-5.17712757229549,0.40795690975064797,-2.7061864757532335,-0.3488031548729745,1.0
1.013445759883764,-2.5260763806460957,10.472178181837005,3.560019705042703,-1.7243806187879063,-1.2015881881405177,-1.0363648841320956,0.14001448687561519,-0.6142464425795152,-2.9065100310293186,4.21637035508874,-0.8288419979130565,1.5375133298964467,1.9325318037642236,2.280040178885951,0.2331795237948585,0.40765410727445106,-2.4669287154891446,1.7205859440275497,1.2123681179019035,-0.27541943134429203,4.0401487831981555,-1.409249967275103,0.4531636040605758,-1.1647993973691224,-1.1011698822819813,-8.607678995664786,0.292951833518835,-3.6456023726489093,0.09427929361427935,0.0
-0.7298695864625924,2.07316071574364,3.0604171340575745,-1.698205754840492,-3.2373189691320965,0.2575331531289845,2.8334956118942727,-0.6763331514442502,-0.7987671903651046,-1.7266422855287513,2.99190103300404,-3.1698670376327027,2.2293896151446866,-3.1515780481356783,-4.256761020374651,-0.18588543607289654,-3.380206943126703,-5.898863371351273,-1.867254472525616,1.974396744480029,-0.589584660536113,5.70205520850563,1.2484565787471458,-0.5865289930926361,0.9665442505206122,5.836731691076153,-8.365248754256333,-1.904935777417886,0.5023765925401253,-1.5580727358535134,0.0
0.6141129671981066,0.1867091097738791,1.207940366040021,-0.17204128751809145,-3.973911363756052,-0.41760596777187864,-0.7812724996943938,0.11072343418649651,3.088968623079351,2.422305508849474,-4.929795285944326,1.0078083066505898,-0.5753390957784876,-1.1742188466245493,-0.439712373846572,1.223931818468504,1.8535163853412615,-2.183774570060396,-3.6254523706021073,-2.2546108782927172,1.5250716683282615,-5.384144058283024,-2.559555536726008,-0.6852505475370957,-0.42026860559090073,0.9287846373164552,2.48885404997898,0.44162864841891597,0.21533936469247306,-0.6681359300316102,1.0
0.7506927951289866,-1.3885233673729758,2.6135496938628573,1.08994580638035,-0.5878128566409573,0.005635830296852785,-0.691931322338641,0.5664250279877657,-0.6928132629272714,1.110633045589092,0.3084847895930032,0.4642868909138467,2.175951531876219,-3.014143184478578,5.663189952181291,-1.343470279529558,-0.9118958671494279,-1.4603698169867845,-1.2718026727915528,0.39015394001345316,-0.39202638516538246,-0.26116864046229993,-0.6586812233127901,0.8619647560864865,1.2958270717726919,-0.2982779776689022,-4.116691740476632,-2.2408467440227384,0.3520461793659002,1.183920483851373,0.0
-0.2760226485555694,-2.610815346016156,1.2343511705649222,-4.000360035471025,2.385780973590136,0.05692642087077602,-0.8289164340062056,0.6167610931729804,3.6165677601683437,3.2964174298118483,-1.9254839001191892,-0.16645237056162732,2.6293812582997207,0.8952336626362093,5.418589764609605,0.4155507414742308,-0.6336583023472986,-1.3291579831113849,1.1361440736043775,0.2687185273046684,-1.1625151776568723,-7.248820815309055,1.5578223430945468,-0.6771902376532944,0.11026751858465678,-0.8491950806688224,7.738131171181569,-0.6365053626495294,0.10558278166424229,-1.0465373464856016,0.0
-0.349851743778128,3.883163297989529,-3.393227445162007,3.646408704917515,1.444652691538939,1.791670710523534,-0.40375536717902655,1.3221671462211262,3.241877394005665,-1.3086237560160603,2.812333154183653,0.957124326105909,-1.2933719593926076,1.0440162654707796,5.174979452187487,0.7077148828661287,2.6412101314617287,6.967628609792537,-0.1359356315680874,-0.2026167676043195,-0.9119587521729098,-2.7123557946974577,2.43096362309076,2.087993682510094,-0.8394815912727899,-2.24095126113085,-0.6867594597162359,1.357461365683299,-0.48803541904910064,-0.2920753016065431,0.0
2.177052647488376,0.8807401157930285,2.661847097252555,2.583135147671962,-0.40123389148966204,0.3770902204267797,-1.4764636416218018,-1.030142265222829,2.8121418036219414,2.65031528584709,0.6611526133600023,1.8022806766442736,2.972703191156749,-1.4477107665096474,9.034824069919734,-1.299637669862416,1.2432107749512917,-2.308712725559164,-0.7535324946081459,-1.1246550393159365,1.949684321032359,-4.836488124153084,-1.7469738802936126,-0.3551165654431084,-0.39998202782890996,-0.877216263848465,-0.7047813038872224,-1.0782181701163007,1.0661200077925952,1.0921029610193338,1.0
-0.21964501553375435,1.7974191313818255,-4.539261371428207,0.1201553706275802,-2.2434201245724874,-1.3896296708555456,1.6181924894390771,0.8624022887588952,-1.24056153363161,-0.6006695962675832,-3.708763929593197,4.317139540963655,-2.0941373912622447,1.4045532677572221,-4.134645705230425,0.5417376476161898,3.4843758635716315,-3.022476444387316,1.2524501098933136,-0.6446759511634914,1.2006622972482788,-0.5006646528966692,0.37498260571537845,-0.3832148369586158,-0.6211380888123978,1.6763320756430216,4.596913137656362,0.019205968003691544,1.8662989261710818,0.33121927873852836,1.0
0.749013955074131,-1.6897975703603976,-7.87394532176719,-0.9106894359913427,4.347781418090255,-0.012413219525594604,-1.6566925195595903,-0.33408815877533443,1.3305303079390383,1.1118979028546359,-4.40643199210602,-4.953948471436206,-8.807543198951189,0.6878818728115963,-10.849028069901662,-1.8985230300645715,0.1643341678956992,13.075176243227776,-1.21515330772122,1.5493409267710596,3.8749430399401046,0.7593123496479146,-2.3903899687526735,-1.2336134240359058,2.3391289515689104,-1.578027118267891,10.05507504580667,0.6450378554489973,2.6771577087927434,-0.7348037072103585,1.0
-0.31861624222723955,3.0789801312108414,-5.2294525077495315,2.649509935116905,1.8040233543062865,0.640960799203096,0.6650224694439736,0.9007077190419958,-0.2668954496000907,3.425509277958858,-5.731976664088277,-4.481312334490394,0.9002695111019998,2.833135839486718,-7.438552706055197,-1.021062998206856,-0.7327719557543073,0.28948791500548665,3.8929438203254336,-1.4561120964789682,0.5441255166801005,5.459408101698659,2.031662938936152,0.6652715062900945,0.810577920330005,2.15405389868186,4.505411493185051,-0.9182033728509937,1.3161063755243152,0.6696226323802841,1.0
0.6866281919461598,1.1687952103216124,-2.2743122143594996,0.04620212955841274,4.057045732070765,0.5388169281811231,-0.8842890029883183,0.019081627779767917,2.2482111642519276,1.2255560833376093,5.26291779182378,1.857847591912574,-5.415750639747433,4.3518683605823,-2.3674824662787644,-1.0731785094754698,2.367863795654073,-3.96446943980203,6.76245734296299,-0.1511522866234305,2.872246590057581,-1.783975764466993,-1.634148667886011,0.6596997699307984,0.4462018362894799,1.6287372351682272,9.427089944066717,-0.5243599556815834,-0.3585199431397539,0.02479863462860666,1.0
0.6803837384236716,0.27273435788508915,1.5165667591883154,-0.7334691026810305,0.5034492129742412,-1.1262382070860628,1.1399751145005097,-0.9540544541045877,2.006146839987814,1.7112047806352593,-3.5593007831807166,-0.48990657397891546,1.4077616433891662,-3.9806203236943207,4.484416482959563,0.7665513543377717,2.399298931147488,-1.657750927637428,-3.164184047505418,-0.1379112517114806,0.49503314967084044,-4.033778918271818,-0.8871347480614054,0.215220732950218,-0.6976164506090564,-0.1988689843687832,0.22726938229144725,-0.41517528116371183,-0.07193785632612504,1.9992396963335024,1.0
0.35140666884228294,-1.6104357396521278,3.2103846279500345,2.903840605729245,-0.22830146870059753,0.3980947793532806,-0.11101346213176101,-1.2500735179709248,-0.7128501512929707,0.1478220798089518,0.333806388227332,-1.610064461223331,1.9501547157909789,-0.767477473532841,-1.2098361663945785,1.1116221515087088,-2.560902502992648,3.0800104004596727,-3.7227007320699483,-0.47007149958870037,1.2631888686795159,0.6691039519692205,-2.718194140817313,1.4883946776914283,-0.050169267633882464,0.934792307889119,-5.430707282359722,0.6122400149069139,0.7552477089022789,0.2046684378900604,0.0
-0.9589762435344478,1.223579674150114,-12.1871728800254,-2.5019928807508305,3.012548851328407,-0.23773507703838478,-1.4261223687611762,0.8514772375556987,-2.443986346177003,-1.3496616501195522,-1.7395110749331892,-4.6166430225778985,-2.023209520789489,5.528076950093784,-8.812962382221116,0.7207720848382171,-0.4816569194832854,9.865566299060617,1.496527275830993,0.8729183473332867,0.8638071515036982,4.3286501787224685,5.94494020002331,0.23287130774025103,-0.88637514063998,-1.941257843233822,7.044046213483267,-0.1274629682173845,3.8740436989840297,1.4498535197733495,0.0
-2.072292686172439,1.0123213141408791,-1.8534622174666597,2.435794409953135,-1.8200952922959575,-2.8294488110640743,-2.2448667738927277,-0.6887357179505279,0.7617894624659425,1.2328824612914089,-3.9460482074638743,4.159727046758296,1.8339373664634788,-3.3788742241331065,10.546850014644,1.3087166789222824,2.550287529010544,3.2147281569021735,-0.1172059762544504,-0.9519201402292174,-4.357729561550846,-0.7719252635622474,1.3375867999737316,-0.5539685485774473,1.0338053760086243,-1.1936548844530859,0.18067506845726558,-0.7269489590173489,3.2938240019552527,0.4390685558901699,1.0
-0.11079147568777581,-3.097261848522269,10.190534809412913,1.0038849132067655,-1.768244878302171,1.6589403034315653,0.15367402056418814,-0.13438106818006249,-1.6125821296347422,-2.38277468839006,-1.5619566287500963,-1.2541401348162593,0.12511346258629452,-2.020109425719447,-0.3180157369505708,0.9679455131409394,1.7824685575216406,-1.6096324157479946,-1.697527375630163,-0.291489421253352,-0.23603728624363274,3.971878611017814,-5.061407727156323,-1.635579026816248,0.9050665483595475,-2.438580308659283,-6.599890432877809,-0.07541318090619945,-3.7788064366667875,-0.5528959336937127,0.0
-1.4646968736939443,-0.3166048685902162,-5.77966092141417,-1.1571135969961888,7.228816953727686,1.9482443251347765,0.1781740847694348,-0.3952150017840508,0.5412518645346998,1.298379867987308,-0.8005752961862102,-2.3876381101743815,0.8926379461756216,0.8094747366455558,0.7203870206748133,-0.05919857440860258,-5.8021487494251796,16.941167284414103,0.4602743777152104,1.3148146448442812,-4.783355352053492,0.7673743052947001,-0.5958409762032126,-1.446932069802858,0.6001189507966102,-4.9696809585218675,6.364671473953851,-0.5975257016344556,1.7811194535408612,-0.007123612208336721,0.0
1.5798297187236194,4.065304060325767,-3.8251031203948846,1.3685879772216047,-0.20746350846869488,0.9739051199932285,-1.8614844505554884,-1.3705590420670095,1.7754491124985448,-2.003167364173426,-1.712021691459037,-1.3472024197767876,-2.2266049575871145,-2.236865321208108,-1.7168377564878008,0.5825450545031773,0.514346902173709,8.56750475783809,-2.6480922720001527,-1.2120566517265619,-2.8544919113333447,1.566833849241929,1.4804890923713263,2.0548546198131667,-1.2637690772205423,-0.9352881777789093,-2.270774381705634,0.08823575388594865,-0.8028577341524408,2.1597392606609995,1.0
0.07541774261246036,-1.582332199351817,9.288487661006345,2.5621066901551215,-0.5657289152213176,1.0611942762765827,-0.9952966937905094,1.1907461160252475,1.9974578278296766,0.6149312992182756,-3.4277711427630084,2.149379915589897,3.522866591339602,-1.2725434903142203,3.930339348641749,0.8055938349951759,0.36494818588396705,-2.2043243854632424,0.7109363548902534,-1.0249280665857678,2.1520002061925605,-1.861502555117779,-5.11223871247398,0.03249986288786191,0.7061285491093263,-1.817428291935275,-0.9350331670373364,0.4833248272528027,-0.9156280336341396,0.24672138869860635,1.0
-0.7173921636594315,3.6031034232949253,-0.0704279975396582,3.84309588047248,2.583812957507455,0.8651565501202622,-0.5660145827367716,-1.4329490836170877,0.49301796188666636,-2.4495824337612477,1.455130336618046,0.37248266891452175,0.7710464195191906,1.858359893928394,1.6003271827753578,-0.6157374582092063,2.1655540329247644,4.1460572401152875,1.6460556065301417,-0.34458653573463344,-2.318296788216723,1.653764410142211,1.2085416362296155,-0.48899228957847524,-0.3630498636885798,-2.24442527852737,-2.6832146526814804,1.290548225767958,-2.8719747615543674,0.3160681424016309,0.0
-0.319490070572669,-4.138157291043986,13.586950556412303,0.06186497634416199,-4.505560786427902,-1.4619937798268778,1.3186179262194737,0.8262314899624682,2.0692093200281416,-2.5348886292374635,1.7244023687515266,-2.4930620367446967,3.46170920788717,-4.0768162524718985,7.751597837103998,0.581873956823205,-0.6902837756682263,-2.475513747772928,-2.240232307432538,0.5428733481036709,-2.34713395151906,2.1543567618275232,0.6039872292736344,1.3333873002204246,0.9533975332379796,0.37012256227263085,-11.367244418353776,-0.2964154436547553,-1.8487467354353988,0.07486130625002908,0.0
-1.0130295116228378,-2.4087991742350137,-0.1882459292422022,0.8624255015735105,1.2964286811059824,-0.17394642233615382,-0.6574137937108836,-0.42271445969271,-1.5156442161350996,-0.47194756679080996,-0.004175009338849067,-0.5859581940455092,4.371349384144828,0.006112694556336229,8.585651498612435,0.2543415092985207,1.8343513239791847,2.8927844351423957,-0.8970474602126797,-1.6872237499357012,-1.1140943863626975,0.2581114408117154,3.936492009957844,-0.693310745589168,0.20101498070865345,-1.1475854695879735,-2.2612699064751336,0.7495817433076553,3.9478375074079457,-0.005104575565263934,0.0
-0.0012678534874969365,-0.8277066986769006,-0.744364997574541,-1.4963469700945977,2.2168323373367596,1.6453818327071346,0.7051733219097177,0.6870670696361196,-2.5722418651406196,2.501995986054115,-4.622112100675162,-0.660813399571673,0.6098407515221211,-4.796535068903118,3.738312574669604,-0.15742133377341097,0.15207143498842002,-6.229424641151042,1.0627603391903415,0.6009383807117264,-3.396324013685199,-0.9199250830361998,3.207046957981067,1.1263475324349776,0.9180314686799862,-2.583157763263015,-2.1384977539388705,0.723348218864005,-6.773139556776219,0.13617467474782943,1.0
-0.2224781332998583,0.9289874744998591,-4.444873767977632,-6.3827820676213385,0.9146553193059523,-0.6608943369861829,0.551334216089744,0.20222587459196467,-6.839379244869132,-0.18206305493062724,-0.30874192818763535,1.3566916733594327,-0.7932849659088462,-1.506444925797858,-8.960823370413516,1.0784307441987107,0.30042463889361515,-14.539066797413,2.4086735627156526,0.06812285014065171,3.4233998545473545,3.921120617764639,-0.43745516653539873,0.3717360280120473,-0.4491074688293152,3.582850792547423,3.028253893868029,0.5772483723755298,0.33489198962670974,0.4837788340027778,1.0
-1.6541764402276586,6.280627606465952,-10.623146469050674,0.18712979351300807,0.31500720126194637,-0.5762619290282724,-1.5836079344201974,1.8075903221923073,1.4581037073308156,1.89701460016011,-4.3826534904369465,-2.9711520035666426,-2.627844397091403,1.29082955414354,-9.045303143450889,0.6238959430765766,-0.5141433614917227,6.006965211388025,2.015429471819783,-1.0344713570175377,-0.22392293047281042,5.67529200431951,1.0613210693273811,0.9733659524856143,-0.4320438142447743,2.8592010955813096,7.994228563549874,0.29953250304321194,5.277094984694869,-0.11542030120241245,1.0
-0.32659082745082735,2.3783217503350613,0.10371767762177572,4.507723470409664,-1.0758493775829647,-0.12802686798323787,-0.4117215811555918,-0.1517337584205077,2.712502858646618,1.0628194721157906,-3.5355171213764898,5.269512650917362,2.2801968849519754,-4.22600308130702,9.573250053026785,-0.3921815611975842,2.42760623775229,3.5520013214368067,-3.2706087969817412,0.8311199979939045,-1.2031294737473868,-5.610254922166525,-1.5686722498027026,0.800765426739591,-1.1342804531462336,-0.8880881578887712,-1.7564882220469253,0.5230396329635579,1.7561341044823284,0.22185251680304485,1.0
-0.9397025982521517,-5.076237292065121,6.794377108414055,-4.712384177072889,3.6169443035891624,0.41482448203587435,-1.3285025290151236,0.30005682551128954,0.27054204632999757,-2.892273638514871,-2.485206614599557,-0.7330041303531245,4.060002277907104,1.1176534351804326,-1.8251747814733903,0.8671930619189393,-3.9073341461068907,3.03748463131746,2.4272099589181155,1.157553191675312,-3.2707220499660017,0.29875867970424314,1.4722292635600507,-0.3415766322183575,-1.388877009633014,-0.7830429966680582,2.6405418081773444,-0.3551216554904988,-1.0913091744832428,-0.028802694674421554,0.0
-1.2714111821740754,4.45074580584271,-9.168248638448247,0.3872441974106522,1.149339231573221,-0.7438860653255841,0.2708365158339546,1.1302197718374811,-0.19142798937801708,-0.7738143191990317,-1.9359835003871795,0.04972938277189476,-5.126259793392531,1.819653923729628,-12.298504689221092,-1.605094964043946,-3.8150666097136368,11.616310860681928,0.08997977273118818,-1.2472926450301534,-0.9956529286552337,3.367544718037582,-2.619802913898529,-0.6522134899305057,0.8975435703037948,-1.0604121000511435,5.5361472671280785,-0.6743429535719255,0.5842413841108773,-0.29409847380563336,0.0
-0.8789470032478534,2.9190697044084715,-8.51042139251113,-2.5031124143434504,0.7409196289085181,-0.5248128336822896,0.9230132368944994,-0.9242189639800154,-2.3231681090925713,2.8783749676486323,-1.8335362949074436,-3.5795359324046303,-2.5242682146492044,0.9654681830141132,-5.500285079774986,0.26047174907088094,2.3120391535534135,-5.301786239887069,1.582777108200611,0.2965513214313054,0.3774551309757912,3.3796121921024516,2.5612441405181947,-1.83356421398709,0.972911070368237,1.720398657157628,4.9192123774545,-0.6682689998441153,0.414252745574359,-1.2909432503252167,1.0