@RELATION classification

@ATTRIBUTE feature_1 NUMERIC
@ATTRIBUTE feature_2 NUMERIC
@ATTRIBUTE feature_3 NUMERIC
@ATTRIBUTE feature_4 NUMERIC
@ATTRIBUTE feature_5 NUMERIC
@ATTRIBUTE feature_6 NUMERIC
@ATTRIBUTE feature_7 NUMERIC
@ATTRIBUTE feature_8 NUMERIC
@ATTRIBUTE feature_9 NUMERIC
@ATTRIBUTE feature_10 NUMERIC
@ATTRIBUTE target NUMERIC

@DATA
-0.3463471250953676,0.6151050677776392,-1.5991364864470128,-0.02507710920357953,-1.8353852787631069,-0.0713927591237979,-0.07990030343713883,-0.08834265900909503,2.149470920207647,-0.4067230830465839,1.0
1.3538908762523743,-2.5528834315622877,0.5699503053413824,-0.8380899036716131,-1.5174819190222446,0.9154748297543673,0.46400843627911337,0.6353969322148971,-0.5372557435118799,0.7214662737850742,0.0
0.13633615329744264,2.473938251165453,2.15574316320679,-0.05409562034370152,-1.7773670029538535,-1.255050691472287,-1.2113599655903022,0.8363237229955514,5.026974252473422,-1.13145302065243,1.0
-1.4713141509516516,-1.6108113149082546,1.8113750286649815,-1.4261684378359802,-0.22287857878866113,-1.7672939613812306,1.9035516785495645,0.32865216037320905,-1.0926839678342102,0.6235488569016372,0.0
0.7675849727773429,0.10778445444215973,-0.35301605672556224,-1.6340548919460502,-3.142936363557262,-1.7742859801389832,-0.3706671871914271,1.313068515588715,4.881877580704355,-1.0365759163562973,1.0
1.5115207175661105,-2.3841447848430795,0.07299675597335759,0.793812843212043,-1.1653744201574758,1.2676436178157642,1.345466978843672,0.07518708760618616,0.5420467754704443,0.7800781797165829,1.0
-0.9500206680566747,-1.1352768401458497,2.2142515234622757,-0.38068644324252643,1.1320271444156442,-1.2670731411850902,1.6544990440466116,0.12644902282346232,-1.4591228600097734,-0.2960172273298979,0.0
0.21007696375402185,-2.785609081624439,1.5145175625895815,-1.1105101649069666,2.321769135502122,-5.017533456690706,3.849384433666153,-0.6033235652217123,1.4998874510320548,0.7730831891775268,0.0
-1.901537324623348,0.03174730344003265,0.5029004049141359,-0.5510912440037106,1.3842288662911713,-1.6882363368939022,1.2057138983712894,0.030311657494342222,-1.5879516066260158,0.32627467084668543,0.0
-2.3852381180077287,2.4802717772976273,-0.451409657600639,2.1760397997085583,0.3055245741315864,-0.26328704098733113,0.9819702868815459,0.2825435261067931,1.48850020038685,-0.4360534876498796,1.0
-1.3938088779340307,-2.4545127568415106,-0.2504680389919105,-0.8332072656952664,0.2839418475536254,-0.8438455162536219,2.4616325304480595,0.8284545156951065,-2.6339722382968693,-0.01962348581047458,0.0
0.7114414296085471,-0.9940560631973985,-0.05798394743223416,-0.5743627794096484,2.305955701151093,-0.270122362347529,-0.14195654945069835,2.0100092893000014,-2.735987240248492,-0.44838021905388226,1.0
0.5121328140961272,-3.6366168176179965,-0.6465295211924377,3.5150773519134515,0.9636432966125421,4.0831784716801165,3.215637738907529,0.293269314133503,-4.247214085819446,-2.8882712051927246,1.0
-0.7049098375417915,1.698719225874214,1.5681047947182098,0.9109736585366646,2.441503081268385,1.1707659959449916,-1.3178774741722148,-0.014019538257588698,-3.0375739987918986,-0.5260780322119588,1.0
0.374348189610862,0.4205051590804917,-1.4108244980878752,-0.4917792473667032,1.1298150646504816,-1.3001122260937337,-0.34318343423688313,-0.5277768642459393,0.47749750427285487,-1.1744705267667168,0.0
3.064639708913562,-2.8546492077418857,-0.9171598051960359,-2.065827245305034,-0.5304645434232473,0.031140486516960716,-0.7422979097398625,2.0034072671821046,-0.41469073188893857,-0.03088763557158007,0.0
1.0378156529598745,0.002685530524012627,1.5339781208495669,-1.3055179096722882,2.8313885165136528,-4.36718216415924,0.5377681436833885,-0.6829923303511227,2.0985157011147395,-2.249095728055939,0.0
1.4652534571979936,-1.7285637134028788,1.224584437626143,-0.6569614772135101,-1.1750210122938398,1.0043983244322099,-0.22124089250195644,-1.5369479600263205,-0.30889616476711845,1.6233965622990456,0.0
0.8553921088606623,-0.3069331183450572,0.9763839534621028,-0.5273763143588124,-1.5935780928670367,1.5951159996517432,-1.2849037765701685,0.30268534899598587,-0.25725799540686745,1.1040491364833538,0.0
1.8813491103775193,-0.10145057034423072,-0.4317957886402062,0.5214335233286609,0.8324268268733266,-0.4847601605437536,-0.21988292118507902,-0.8432606042937426,1.8594942071005969,-0.8860424543316735,0.0
-0.8418520891920782,-2.34430768381193,-1.111413012134435,-1.1060616699508303,0.38152010390813684,-0.9042303619863874,1.9028498041184854,0.2056863749606842,-2.4011773543157493,-0.05164415516508496,0.0
-0.18170713469213728,-3.479541860451556,1.2251323481678744,-1.8653298307553334,1.5366059028593386,-2.79257060764391,2.827130916300592,0.13554459215862996,-2.040405644613293,0.03795043629044597,1.0
-2.12116037447828,1.4352606648486348,1.1474093301916062,-3.439224306868858,2.3324682569580917,-5.703226473910702,-0.07257594323975058,1.1986413719910511,0.14355755050297936,-0.3042238811718139,0.0
2.3180455106372886,-0.17827312072704793,-1.1631894610536389,-0.2750457006641993,1.5423963093651685,0.8435781766227276,-1.8736713087509367,0.20367208489309827,-1.1633917297134437,-0.7358039150428299,1.0
1.676759167299371,-2.7798753070729196,0.03126687724867452,2.3125528118888,0.0833747719670408,2.737127791949676,1.841789941671062,-0.0015505058359027444,-1.2619699513400269,0.2513056408063804,1.0
-1.069532925055865,1.4955818074197031,0.27654366689266663,1.434238628470565,-0.45698214651510716,0.2774525684568438,0.35355661338858413,-0.6404934347691842,1.5006089549013528,0.799499253504148,1.0
-0.586099327187909,-2.107253536347205,0.3041261706698093,0.3378363075976525,-0.4731398725530269,0.9140531939596511,1.8510415283370056,0.8375627033583725,-1.9603430964320325,0.2658984798138483,0.0
-0.3253468830822749,-1.2938312184007406,1.1159020533653614,1.1801445278097646,0.5695760218222631,0.3809088375928352,1.9094462753872794,0.9478258028372162,-0.8856024479093425,-0.6492655780759244,0.0
0.707845849935074,0.5383484113892909,0.2677512243644622,-1.1929871888396877,3.0361332511246197,-4.379390214252776,0.32276573198931047,-1.6853109387619405,1.9963716270467677,1.4594936033835215,0.0
2.0056926681523595,-2.4690826513813966,-0.8748203800761191,0.9072763117031869,-1.2412205132741834,1.087105293688127,1.3865070173272742,0.28488989257219893,1.374961400192346,-2.2763735085920023,1.0
0.8663295244313494,0.4550025293039399,0.10164428768951007,-1.4927937653692656,-0.26517078805140604,-0.889037101264836,-1.4797164790900632,-1.7628324838426952,0.9134108115134003,-1.131026391491943,1.0
0.14183471214133714,-0.7220444365757381,-0.5071078941326084,1.2084209720380537,-0.6632571266703426,-0.2569292428227868,1.7631991405443659,1.2078093084610022,2.0833488785159266,-1.1710418541758545,1.0
1.1778451794424742,0.23001459594361542,-1.684785394820462,0.7596885056946725,-1.3874733847164968,2.2135902874741396,-1.2046190535557026,1.046920127650012,0.6199493364107127,-0.9337222527402227,0.0
-0.11519021623093773,-0.23690095471932218,-0.735858449322835,-1.5401226059529236,0.8354115486151719,-1.1399292045144473,-0.4790785949375632,0.8812847814327686,-1.2834711332419708,0.08334707099324289,1.0
0.4329057062755839,-0.13516819607877728,0.7714389919158241,0.7153201704849432,-1.1554274459935199,0.939777584692552,0.11355947053772086,0.1702983621623942,1.1253347493602468,-1.8959648413072892,0.0
1.9582773929560304,-3.348069410953246,-0.20896048733203057,0.8400342667525589,-1.259513938066064,1.1153916887246405,2.0702587673072252,0.9893694382821313,0.7757217023373059,-0.1285074808558058,1.0
-0.43438464085143136,1.405320304318577,1.6810923149304875,0.14148968823405528,1.7000118167863738,-2.0684508447673853,0.10895518202402843,1.166548590977006,1.3155049813202955,-0.7509055497801141,0.0
0.18667538662469618,-1.4249481811091447,0.6416874371546496,0.7091189348255071,-2.5215331509448466,2.0199176593837858,0.8643096909911951,-0.5833579722273482,0.32906153687582296,1.2246270872263318,0.0
0.9790222272410256,-0.04324950786836098,-0.30353598557719785,-0.2924379118039926,2.7366844333294313,-3.9366385392735666,1.2060625835668284,-0.600973963003361,2.6231099282319015,-1.2931453236461579,0.0
0.04508255104142256,-0.03203292107219697,0.2606628331504074,-0.38183896671678974,1.4678849184512583,-1.7938137262259466,0.5170253443831954,0.7198372908713905,0.32534973439902437,-1.400507960274943,0.0
0.6168248031147563,-1.459363080722109,0.5077576703115002,2.361198336597277,0.2694413002336775,1.8513560403765816,1.771645549267646,-1.8024089074942171,-0.4931471137663006,0.053988418445792954,1.0
1.1513129314464066,1.074774948109533,-0.969199610313766,-1.9473890630018316,4.535696827403014,-6.114238599725628,-0.1677137600877039,1.8466265008304728,2.477026508616281,0.5510373022425374,0.0
0.9973673827206514,-2.0148203746403683,0.1696937923520195,-1.820969972992069,1.641300446645555,-3.480148792793371,1.461618349,1.0896648650164613,0.6183291959157363,-0.7001158732050082,0.0
3.3354726546124756,0.010689822777019626,1.792922591330873,-1.0137737755379015,0.46459805588432723,0.6040740016558048,-2.844851312000869,-0.8053718270503438,0.5912581176012557,0.22395527808973467,1.0
0.16406093260880938,-1.6513076892021308,-0.015193128769989376,1.392694569179296,-0.4764463401101552,0.9417584866260585,1.967801692655755,-0.7964401810595795,0.018826414754864906,0.863100226170631,1.0
0.33418368603076776,0.8627153541445883,1.1494197282637149,0.39328014092670593,4.383268142865308,-5.6413334034732605,2.078621126391832,-0.27532322350543004,3.6371661545490213,-0.30090401936135913,0.0
0.8192176198494637,-1.2325807242583193,0.1683951924752465,1.0465013437055366,-0.9463723529482205,1.507638068551534,0.7617287207056727,0.0626853968868732,0.24840824232322067,-1.1912901392878061,1.0
0.32588289542237214,-1.3658385760684952,0.19152096386596482,-1.3773898134480222,1.5131251991899806,-1.1332515962871643,0.2876352983801169,0.5212952905957563,-2.095872279160357,0.24123813765534804,1.0
0.39302624848550605,-0.907735385846811,0.33872050286963534,0.6282305780174877,0.428140954892844,0.11555636377922691,0.9608398171845554,1.4571957599562464,-0.11255041679920663,-1.6988491998036455,0.0
2.2683130786238603,-2.553470693239075,0.7080891218566765,-0.5299984881703164,-2.397959392879362,0.3714600510415196,0.7094949393049557,-1.6010192977017523,2.296058335903435,-0.8480986993392317,1.0
-0.10547972633373126,-1.2888147141066886,-0.840281430657129,-1.5057453501855127,1.4426065935344392,-1.6392657432805497,0.6220055003321381,-0.3038308479862159,-1.8294732691040458,-0.9228301897268331,0.0
3.463617846753043,-2.4963489486938752,0.6294135848867876,-0.44588068809054926,-2.543340512637822,1.2595554334703112,-0.32683372162872293,0.0812768427670279,2.474588062781601,-0.9149590677826966,1.0
-0.03580136099892639,-1.2728807577948624,-0.8171854666089954,-1.7767564920075827,1.9077121342905428,-2.5794223672530743,0.8260758883630877,0.5890569474058676,-1.3332155161513268,-2.094120627663777,0.0
3.1794861121227673,-3.322841310636286,0.29798223637745164,-3.127982888608055,-0.3809666437809147,-2.5467266347950335,0.16656648638574767,-0.19952867332940877,1.534684658930595,0.7609047431569078,1.0
0.31065081146996976,-1.3040123280594407,0.005810558542450015,-1.8994471371857606,0.11029846452552194,-1.8264666500776152,0.3963180495646359,-0.04502682282886669,-0.13948684665049715,0.2650560448403119,1.0
0.8411403050083076,-0.978183629275083,-1.5868117155950892,-0.21186904770325865,0.6727291319081825,-1.6640955060334117,1.0950987928622695,-0.15922387809671018,1.4251976050629849,-0.13426810335751052,0.0
0.9416895124637858,-1.0816581744526739,-0.41093115629918414,1.4158320802999338,-0.6798766126747054,1.6995921185995313,0.7370856704421498,-0.7067567572181777,0.273284034860815,-0.36722421595499294,1.0
-1.3059717424215762,2.1499779185113654,0.35920940045784094,0.16862781660211534,-0.8596746293110433,-0.6188705564384096,-0.5550699237927137,-0.21037015856104574,1.9442016762110081,0.5568208407749982,0.0
2.781877682778747,-3.1451329206529466,-0.7287316813744033,0.321155687733251,-1.8491087088169174,1.1383691853986733,1.1462697714415389,0.9124352492591664,1.7040217941112275,-1.5342986263844585,1.0
0.38081928951357225,-1.0485818298743896,-1.07669016922513,0.8826924004542209,-0.18119352682477596,0.9398684469707969,0.9047970599837631,0.26166297269647903,-0.328388104079527,-0.34961218677780365,0.0
3.8053987826452307,-2.882804471785023,0.06395678691093298,-1.1351893748942241,-3.0163561475245775,0.7300075133112567,-0.3719135430689362,-0.9923132660360943,3.074832116893615,-0.37171290329290085,1.0
-0.4311556074855809,-0.8921009557597895,0.5823959599840627,1.2381562917547932,-0.6882615010985242,1.4539788776783726,1.230386812146373,-0.8897461017865688,-0.6972730476036719,-1.070594338235602,1.0
-2.5185373239086113,-0.10491863398275941,-0.5024624869106167,-1.1191877986646064,0.45707062439833657,-1.4043858306542312,1.1080414874571258,-0.9256208497743664,-2.1330389829787513,0.2811795622694529,0.0
-1.6986708470807081,-0.8105705567610096,1.8078761587991903,-1.3527969514156761,2.6361462342457336,-1.5257099545396933,0.8876303707835429,-0.3036615238739961,-4.314837809199195,0.3507851757548093,1.0
0.3394297982348865,-0.24558028052821984,0.7251513993817416,-0.8243867061441532,1.485606809741531,-2.829538963854346,0.7773593047119989,0.5754686674944302,1.346057991294947,0.6799730755167559,0.0
1.0591677994960362,-5.042148444596972,-0.09116911955618714,-4.627295973690831,-0.11697907336908586,-4.256959560414242,2.312415324189703,-0.49836239219244655,-0.8892278610871629,-2.240049898519503,1.0
1.0923318348022226,0.20154272456993283,-1.955276426310101,-1.1095285786958538,1.230740075047318,-0.12468853836366599,-1.6973227166080296,1.3059699173271888,-1.3013350587676151,-0.1653990181435119,1.0
-0.3142444215833893,0.5712990936991587,-1.2824986211215224,1.4315746733515662,-0.47514112347410753,0.32074970946523007,0.7360129178057347,0.41719046438256424,1.6366130796786822,-0.966517025934993,1.0
-1.0306583955253723,0.5433866344020214,-0.8024927332116473,0.739093493934031,-0.763875456799962,-0.75165931209475,1.1810602067171199,-0.9809174429602977,1.9911685495984544,1.298811324847052,1.0
0.4012905136963363,-1.7951378888745912,-1.028674333129084,0.2138457564186993,-0.5142665853663964,-0.35641786055727914,1.7478106759261487,-1.6437407155880577,0.6626755918122522,-1.278022583436376,0.0
0.9918834966371771,-0.0006107998515603745,1.3684219544726752,-0.7864006873331993,1.5773814274966034,-0.08056672584129719,-1.286626256507784,0.5367436230124615,-1.6077316404184723,1.188145734706984,1.0
1.2023878855605732,-0.9112582464663243,1.0329639471528058,3.006519586844373,0.11663657639819702,2.407363097210056,1.271694826699025,-0.36883022959254025,0.4372634042486758,-0.1949452084289584,0.0
2.3951322946521447,-0.9923181853392287,-1.2145434897264067,-1.444252527376583,-3.116586836653824,-1.0536704771827337,-0.49256746620455605,-1.4071440262149164,4.961432940984422,-0.5339091013167999,1.0
3.85996035729294,0.5934363049526891,-0.6472406379880465,0.28697269860798347,3.338575769742893,1.7308927189774468,-3.5346902893721603,-0.6284848638960467,-1.9738632593824117,-0.05888180990272468,1.0
4.627537065080678,-0.5864878563168775,-1.1103995172960208,1.1177707966284482,1.7123743103786562,2.669212747264078,-2.5541674217490646,-1.333157310653655,-0.459849564379302,0.567055517388103,1.0
2.66363795881219,-2.57249645460205,-0.029890473902299677,1.1984217249280849,-1.0614139465913726,2.010823396266128,0.8471117056973794,-0.3915648063298045,0.7958000900525068,-0.17431370503474794,1.0
2.3324477684013365,-4.209896866076041,-0.8281939812657637,-1.9964840504897543,-0.412960906863425,-1.1628270275451509,1.4557607840204834,-0.7820176369076074,-0.28499769907191497,0.23947746170589657,0.0
1.8166629282547127,-2.331357211941492,-1.5184489439647402,-3.016122268068275,-0.21515847714191638,-2.3877513288626315,-0.02652562047770768,-0.10302320139721578,0.5794137601882576,1.2438529325863146,1.0
0.4509199344281568,1.0124259657341856,-1.0766605081776657,-0.8144455990475423,1.334794166717328,-1.6216292787458368,-0.9814753330386401,-1.0895930982946527,0.7159137016405654,0.6684079609423651,0.0
-0.46574371942642645,0.21794878731770667,0.22228271745828398,-1.6260144173719553,3.4453775338728514,-5.824457922391366,1.562224670481217,-0.9372280488338227,1.76477908472565,0.16047620699884568,0.0
1.907023853021888,-3.483854835254909,1.4351815491900517,-2.36520876239577,0.9761352154611935,-2.9354830938274032,1.5771448965120993,0.35555062967435275,0.10325929376088072,0.5644029878932662,0.0
3.1314281393629075,-2.0902829886821412,0.1523155135766242,-1.297816498689321,1.1462350504727472,-0.637380995505568,-0.6192951320185078,1.8115048125935167,-0.15017543897859076,0.3794820571655074,1.0
1.0227784546700367,2.7320787149786954,0.07377010788688614,-0.020048907143204286,0.6822077935680704,1.1473289020257063,-3.5204409404400754,0.057013136371051244,0.07978166635528972,1.3972264225587627,1.0
-0.3969578258934101,1.3657658805516222,0.20709386223295154,1.01995776249538,-0.5651138791217953,-0.468577279251294,0.2385179943406146,-1.1208223655203873,2.692934850399377,1.1423264545383518,1.0
-0.04921965094351122,0.2408019445622584,-0.316650029261228,1.0851297309759937,-0.7156344197359452,-0.7602686899404406,1.247087033145778,0.7621984007922114,3.018328917270552,0.878643509726043,1.0
-0.9950832266789086,-0.10850477055351058,0.9001769869124664,-2.6824773494543472,1.0076560358376072,-3.558633277031832,0.24960600795663657,0.3547784821701996,-0.2147087842277665,0.7781091861260174,0.0
-1.6795010359815303,0.058623872317676635,0.48342548811460334,-2.596485845775064,-0.11321903048587001,-2.182668451305699,-0.12608489678879808,-0.5157170699330023,-1.1861808249996555,-0.5465073945087545,1.0
3.4037907184187075,-5.668666727379358,0.0886466973980125,0.7122265544291417,-1.4075610029551089,2.5537581134680036,2.4014804198082356,-0.22898286149024658,-1.035508801580535,1.7221286056849698,1.0
-2.9249381419078158,1.7559292133505422,-0.16456307100859416,-1.5337600849541029,-0.8549513048526214,-1.92232438851837,-0.11437550904831673,0.9130002202742996,0.22012019474595323,-1.3405531800038282,0.0
2.420538480493434,-3.1472036114783535,-0.6174466124590982,-2.2430028483650175,0.6973596049039409,-2.0761450989400427,0.7000280050107697,0.3968386658488053,0.054005260978658765,-1.9121031610848602,0.0
0.6330003027747079,-0.40173578251146935,0.596442339560671,-1.3682605212076466,1.3479194285934786,-0.5190796386964213,-0.9806601032891157,0.3041929195534216,-1.916945623617342,0.2709745388461927,1.0
-1.7621252448437725,3.9011289977030326,0.9213496029864963,0.3375721755112634,-1.0709601982545063,-2.5146545766619006,-0.5431586604614347,1.2144791339073469,5.373376485123665,1.4105680050051588,1.0
0.8415290090300952,-4.678698557244534,1.0730873454103131,-1.31169601529109,-1.4796160936493177,-0.5826083715711659,2.933781521683425,0.547215938057004,-0.7048267707942768,-0.16396087960192127,0.0
-0.9984347412297242,0.45244620204349356,-0.09437175003538116,-1.61518636921456,0.7498416650340687,-2.8473079615146135,0.29362060902641485,0.8126894256439955,0.5558550599937104,-0.08589324971779164,0.0
0.9815181037168638,0.7019904281888639,1.289756528375374,0.6508532178456923,3.8136474161338487,-4.4327383248302725,1.502029218982778,0.12049995878930102,3.450944308445298,-0.26139992495512276,0.0
2.126941274964087,-1.6497340356360903,-0.5341483496880968,-1.8870635914569347,-0.6455687928560441,0.1353138475195455,-1.1918646633370984,0.5633454625050239,-0.4217551693126693,-1.6230458934657455,0.0
0.27552194826308063,-0.1424730612647242,-0.2526856880009639,-0.11409561001761237,1.2830146276334986,-2.244737020868716,1.0012061622324544,-0.1888966877844753,1.5484829416873032,0.3920845297008694,0.0
2.409271430375206,-4.052963712619401,-0.19753522569696805,-2.5579026399517657,-0.9289285191456369,-0.6178858631888485,0.5842449745816396,0.033458770992302565,-0.8542065012579776,-0.7590404472086483,0.0
-1.0261180904586054,1.4039150951867991,0.10884563020912037,0.05479558222260095,-1.4903657800800094,-1.5162248468205357,0.43329833605413914,-0.9941062330421927,3.5572411663032617,-1.1186314281988077,1.0
-4.983569660988434,2.000108096215551,0.49444341408361847,-3.2888458746245752,0.9679450529689525,-4.84456322105588,0.6427514164501678,2.3004100854469702,-1.5281493420055834,0.7236136191777794,0.0
1.3807138522708586,-1.8584578042505198,-0.5652847763990818,-0.7908873849886526,1.3044438828787126,-0.2130834341882914,0.17932215760353487,-0.6627137718629301,-1.781971967026493,-0.4107086591024168,1.0
3.3582031952355202,-3.233492863811396,-2.0296738677395822,-2.7029208818670414,-0.4184756022460401,-1.9525182833945298,0.023391256169383645,1.257059956689093,1.449157959008176,0.7635911006198558,1.0
0.8899202267539098,-0.29716553387171785,-0.7723040253264754,-0.2814818459182781,-1.2993705420881052,1.2418925482621241,-0.944782441463407,-1.913106425179025,0.16795463647206055,-1.4356188282134401,0.0
1.6443619251466441,-3.033272651070276,0.9629655291141299,-1.718481289916218,-1.3543431419840952,0.3599127476207769,0.2937347442027791,-0.4489208276097959,-0.9124803929894016,0.30762075545105183,0.0
-2.0065312754513616,1.5716530237058264,-1.9373623164764597,-1.29268313060868,2.336033887520447,-3.472136399626048,0.25550755518551216,0.34864434433422065,-0.3641596910100524,-1.253348193121886,0.0
4.175214666457965,-3.131937890048505,-0.572997804990946,0.41282584782519893,0.1048494195881099,1.0349342256123386,0.3426530147076142,-0.8357621350209089,0.9846831441117754,0.1811165102110608,0.0
-0.3188514976717358,1.304607634169195,1.5834650253840938,1.1300489413473367,-0.7759780752136708,-0.22990006995453754,0.23482188660679948,1.3140094746438993,2.768637367935508,-0.3067803928713705,1.0
1.2863756747341433,-0.44771422338361005,-0.030938997155624107,1.0706346844267207,-0.7766240956176134,0.43954573595491386,0.49280761845848997,2.060558616616052,2.316191043447091,-1.960158008293832,1.0
-1.6989467574117212,1.5588852287154908,-1.830768448394866,-0.011551044907051278,1.9964514865569318,0.1150983588957934,-0.825416103974564,0.36257081502648514,-3.0760041966768865,0.20065180395568705,1.0
1.7846280896256468,-5.227333142486369,-0.8851634989998477,-2.247459433073784,-0.17585258720094687,-2.307337966593367,2.9769002293676197,-1.5527270678160376,-0.34484327068973375,1.552561815489642,0.0
-2.4829715658374876,3.0154992420939517,-0.5418349876686417,0.02023680829501351,0.8225893308832244,0.12471606869772216,-1.48307056028199,-0.4495760382252812,-1.6534830059905294,0.6329617515098265,1.0
-0.3468268100725592,-1.84387212866633,0.7458012510604037,-0.3943305337542452,1.3663820140399383,-1.1826600435372283,1.8641775450714806,-0.8537365346849118,-1.6913173273542335,0.5934291731936091,0.0
-0.5201595354842405,-1.2424621783459402,0.827850095962418,-1.277274912616631,1.3011324022400084,-1.7221260503788385,1.0361221786888195,1.312408621742632,-1.6662743859999534,-0.007042798924735517,0.0
-0.012586580428257776,0.14084047891180393,-1.0978623583492235,1.5752838308008297,-1.476916944212868,1.6189072406839258,0.4615707952157825,-0.573437821542238,1.2482787343191095,0.39530946245848375,0.0
-0.3395379735178983,-0.44319217454461474,0.19757892205140784,0.8010159523411606,-1.0028055240875868,0.49201292172131705,1.0441166660024699,-0.3001402843924914,0.7801927467598988,2.4648776358576834,1.0
-0.3031697369275943,-0.39655011449899996,0.5530732764404795,0.4936464488797241,0.7147836018357099,-1.6243649731895755,1.711875191474494,-0.9503481831017347,1.3599145168564237,-0.03368652690871602,0.0
-1.2497990229979445,0.007148916435815856,-0.8136453560596746,-0.5385501475384613,1.372528686937446,-1.5932629914491578,0.8724573721678621,-0.14004285194223806,-1.1213263937570297,1.213731437725842,0.0
1.3714347990143627,-0.7669136434308332,0.09004283765328626,-0.5985890614814631,-2.3880730119608833,-0.7287107840731526,0.22350379439054202,-0.4548203158884532,3.8148838796288507,0.23696141571204274,1.0
0.20092111233200738,-3.206167505988601,0.35348290594866677,-2.497081607347008,0.9204812047198453,-2.915094395874038,2.048849012493413,-0.9763752712833716,-1.363084427503805,0.12150501140171552,1.0
0.3640128924440764,1.0904270642616614,0.059142122272422416,1.009065927062565,-2.1889724813949627,3.2060826900988766,-1.7837771482242832,-0.4542442751532624,0.2192343136204633,1.1261170260153806,0.0
0.5457720134378978,0.8902192755491404,0.5054240932166992,-1.602851650535463,-0.874521026532123,-0.7933680908656005,-1.7518300518870227,-0.5681423298343345,1.3057095917122359,1.309472896350713,1.0
-0.6125769139841968,2.861591477570957,0.6024772094394821,-0.8647809323879094,1.2757660076262176,-0.11532609241674983,-2.902069887603126,-0.510436052426967,-1.1965925947781235,-0.7090337116647051,1.0
0.5374442801826873,2.3986111362222915,0.31747193473109014,-0.14041440716078057,0.8932822176151081,1.058365403058986,-3.0882061918123713,-0.06104342546999568,-0.7752639968027285,-0.031918494643361994,1.0
0.07438586547695636,-1.4838226211070513,0.302449714360124,0.9302457403814163,-0.984013525452183,-0.0852940993148838,2.1440301074571706,0.015686713795602138,1.4603688728923165,-0.6279284867539493,1.0
1.929288945398739,-0.721618770273589,1.397414703060372,-1.2584057973535292,1.5798287721339914,-2.3508142014241136,-0.2301973671219204,-0.5789632551941708,1.314759889356497,-0.07514416681001679,0.0
1.651655904133937,1.0492819794833352,0.7653902141704337,-0.6062983331138401,-0.10565275002358487,0.2606422308402078,-2.295075523114666,-1.2191146113192166,1.169687960871895,-0.1918214582066392,1.0
3.161511866302201,-2.697005848185344,0.28329941844015705,0.3008253505914339,-1.6949273057502041,1.1436268599849397,0.5522149789688496,0.5401127116831267,2.0792883231361383,-0.7932818938336734,1.0
0.13537633232733404,-1.2210377098073206,1.6309291812629403,-0.4248733982227988,0.919523277446969,-0.795320537469339,0.9300652558606756,-0.6247895469340525,-0.9680251767666539,0.9564403483476219,0.0
1.5160319786750427,-1.0234276553105663,-0.01993539524581029,0.6836038893730254,-0.5548180340374085,0.48132264054179064,0.488864587864285,-1.5327958522623455,1.5035372657453285,-1.1567442250519486,0.0
-1.439910342307737,1.0890713559848644,-1.1930599549102363,1.9470363558110408,0.009029535896725838,0.4329935464132594,1.1398022325671562,1.1682177218168646,0.7638251315286945,-0.04008851265655339,1.0
0.9259872741240327,-0.5150408207066035,0.8029016181456861,-1.222827597552983,1.6209369704908219,-2.943730838613313,0.4395763085636526,1.8195730466986555,1.3031823374698894,-0.5604481514895242,0.0
0.6776198737906443,-1.3015267408632127,0.6071311007836184,0.2538385740090814,1.8853887494412924,-1.211423853262973,1.4052627296664852,-1.2525890123654957,-0.3600712790275705,1.3111588863181052,0.0
3.043059743567566,1.1366774648281202,0.8338073391593647,0.873172404911235,1.4927692099119532,2.0386622913361396,-3.0411109662537186,-0.2655468380184237,-0.1260772855774125,-0.427755687046752,1.0
0.9089758029090483,0.894769779417877,2.222695629135075,-1.1652867112420546,3.7354840279100165,-5.090999669253723,0.2656719678966507,0.5243627472529105,2.541381456573964,-1.237820944087116,0.0
1.6019974700584902,-2.00793929404682,-0.13524289563203143,-1.7458090315543164,2.100697712991577,-1.8635539080395884,0.24552371422403452,-1.3654620221921803,-1.396068897981199,0.4800595800866833,0.0
-2.532434136282773,1.0058703228499604,-1.1213806380747848,-3.6621467644644508,-0.5585137174430803,-3.765935303990837,-0.4211531299587683,0.5242646776431689,0.023907370975019937,-0.4020667445166706,1.0
1.4692884079755941,0.9092424347559478,0.3724346469822128,-0.3732054380103327,1.398750812347227,0.4600188402950631,-2.214460039919808,1.1946741443280215,-0.7730677822998087,-0.7900663251352782,1.0
0.9812735889414226,-2.003037408570207,0.2779830647427085,-1.34946790893389,1.3993679652805575,-1.6839396840716994,0.8560855707755282,-1.449856565480906,-0.9776413051838084,1.4548106449917426,0.0
0.7523838379507334,-1.1924783655036677,-0.7042877081911889,0.14068407033731878,-1.5548922829957113,-0.36991925889260435,1.1660174539849661,0.08718640420643022,2.4057909129696142,-0.23888074786659733,1.0
0.9722307799378151,-0.7444668450060262,1.631125852281872,-1.276096139658422,2.531469780077596,-4.4803463616093175,1.3186924995649512,0.29662831967617553,2.1561075420743467,-0.7716283224168784,0.0
2.076429082846462,-5.088282989853723,1.9465428375147655,-2.124106234785268,1.140888857594504,-3.867207503500868,3.537056045428138,1.7268338422187606,0.6821352612253107,-0.2604985619387227,0.0
0.4580688679720727,1.8726832614754547,0.09643371879348994,0.49188094544802974,-1.4244932179452199,0.5239968699340702,-1.4774632683714506,-0.9906923886377034,2.835172197770504,-0.6808872820390818,1.0
-2.9671356408430682,-0.06207899382223201,-0.5947762545556623,-2.1837913757357725,1.33473930440889,-3.522609626998587,1.5000516809251432,-1.7377297550512922,-1.8316683800169167,-1.2812976734768549,0.0
0.5172773136841856,-1.1145359272719308,0.06749853587500881,-0.5852815627741466,1.2451355503804387,-2.6574376080573496,1.5453129054473949,0.4492284349197454,1.3331689967617961,0.19756599017238208,0.0
2.763122347143342,-2.9985375165347317,-1.100779282836685,-2.850983003085294,3.2288662252595453,-5.344987856530059,1.4373345104300863,-0.5865640795627187,1.2413916187606449,-0.7112986247605377,0.0
0.5122806275118703,-0.06191353854245887,1.1487334829294389,-1.0654527443303783,-0.19937592838177243,-0.3036297643294454,-0.8715972065024129,-1.1890112823800345,-0.07104185403018792,1.4323420312175017,1.0
2.179097674873181,-1.3099972265790463,0.05053581559400609,0.37135703944475995,-1.673068567779778,1.2111031713153972,-0.11384576171880867,-0.22514652735002125,1.9112243973748437,0.17049723504043077,1.0
-0.5815338781879127,-1.1538471549758558,-0.8629053387504985,2.5941510851248815,0.5527649748506205,1.8434460305558793,2.2490652764581736,-0.4449457601246716,-1.4564663497164227,-2.3026969895447165,1.0
-2.4390536055120005,0.5733242126024933,0.9002286589152358,-2.4159615206622354,2.9350884247091766,-4.5355146414366025,0.8920970318019664,0.4780899966274559,-1.735785583503345,-0.622378194990803,0.0
4.802264433950128,-1.1904316001211792,-0.6040122749251271,-0.9367097167086558,1.0129128866314312,0.6167194523147588,-2.564999760560563,-0.9191801387207167,0.6976699056361451,0.8846067898626929,1.0
-1.4745495662921966,-2.0093238051906988,-0.4838111315410965,-1.7061464125875294,1.57900203259228,-1.9266265521894994,1.8552283031408803,0.21047054153048458,-3.4153038871357992,-0.3314562977246389,0.0
3.8446599710144507,-1.4295283282213653,0.11772121738091015,-1.1918129406964049,1.0064963945429486,-0.19679278186449833,-1.6542255560750458,0.6563608698285485,0.526529908441179,0.9825734636277772,1.0
-0.66876599811786,-0.7207469537960497,-0.687937387463827,-2.2617089565862374,1.0472752896686897,-2.9346100425115447,0.5878693637963146,1.8866146460894102,-0.6749235606974369,1.8613155972363946,0.0
-0.5241490009033103,1.8648399287922695,1.2061533956705917,-0.16158697492044893,2.9996530204272958,-4.167587654606854,0.5436154323561073,-0.28394181088253484,2.4553679684149268,0.38397155254686227,0.0
0.17511186936559575,-1.6454401317866645,1.1619338134560961,-1.8591739148655235,0.49739188240826715,-1.8057719311686984,0.7143202381134726,-1.4461280325601622,-0.8618970960674761,-0.7683649473140721,1.0
-2.180472338549035,-0.004843011084449308,0.5779105137915099,-1.679128029639942,1.4291989654362665,-2.5551112939122533,0.9281102670608861,-1.4919361464713747,-1.9490858999825722,0.030478850265664822,0.0
3.274803897768871,-2.565250186232252,0.6820344500439264,1.4640776966771614,1.2756665371333133,1.1641385803190096,0.9382012872039249,0.8009366396294623,0.10488578069317711,-2.7735628629134483,0.0
4.295544818501812,-5.673430200040044,-0.6504130347099937,0.5803369314207362,-1.7172726016547863,3.068712832940139,1.6183785030836995,-2.525718633602488,-0.7119116248995434,0.5296931329054426,1.0
2.8407848315077704,-3.1243061996055186,1.1663027472367895,-0.0635742573943352,-2.1178583747072146,0.8593564280853393,0.9788261314164406,0.5995941132814938,2.032347434294917,0.5684410062561545,1.0
1.1999746677752416,1.5318983884775454,-0.7349104144777995,0.38296560183764017,0.6468303788941185,-0.08800864953567626,-1.5667103022683975,0.45353783374517587,1.6733927365232664,-0.3541076414479869,0.0
-0.375664231791045,-1.3014278039398008,0.8885988803308748,-0.6572558321762572,1.5671227612806575,-1.3613179280407433,1.2856847207288642,-1.038801828002556,-1.6927453116988396,0.7344490334876547,0.0
2.2624895063470936,-2.649023617100338,-1.172603256861316,-0.5069919084535164,-3.5818493204805995,4.107660162637901,-1.161763485751858,0.6949979007768748,-1.300388413115908,-1.2334681012801056,0.0
-1.458019141575639,-1.7036979912018657,0.1898478362124643,0.19308762862080253,1.8219012642855072,-1.1437389726907465,2.6796812039538866,1.8618057836696316,-2.549953600258532,0.576758066193072,0.0
-2.6075265284473406,0.11640992093929232,-1.106308181228342,-4.374134274369533,1.7686438165932783,-5.432208155363424,0.40580824775327196,-0.8203438245306957,-1.6927618609312236,-0.4541895583115157,0.0
0.6300032589805111,1.2394197639983215,1.0175012290841814,0.5627684511571198,1.6891752844189911,1.4289355031096784,-1.907760953744198,-0.2955412401465491,-1.9572408963802133,2.6631823501198237,1.0
-2.419841261981987,0.21635967440639525,0.4017712825585737,-2.7222319067298,0.6680430631992552,-3.414336970633055,0.5909209139563213,1.3904997812407467,-1.1535853896018693,-0.19211105272144002,0.0
0.5400344317563867,-0.08590711081099763,0.7024065691510653,-0.49010807713386717,0.49004513249630877,-0.4621876393130569,-0.39257117796103724,-0.10954929146920354,-0.02411150632435488,0.09674989495911643,1.0
0.14316743615157024,-2.220807648823355,1.4453846895829336,-0.6074344141141623,1.004189738917995,-3.158657284466524,2.942907598037962,2.328619008421566,1.313099053792852,-1.8240698738929368,0.0
-2.9886072140640683,-0.8461219436893036,-0.37845405184645964,-2.3199352076926725,1.4788146437792165,-3.4168731005476745,1.9698589108710691,-0.16090490804919289,-2.7127894280874134,-2.8712826629574613,0.0
2.0208989268070803,-1.1590513965701628,-0.6218183005063913,-0.3527535813002842,-1.5062731132994984,1.8914685487572156,-1.1707349593405758,1.0310629139880534,0.016638671068215483,0.7013730648392228,0.0
2.0317310484591866,-2.136592121214013,-0.5071230600565902,0.5134721822585541,-1.5651151841354023,0.7270383726342448,1.0219869707188085,-1.187912808642065,1.9994960865582054,-0.23635473708899585,1.0
1.5166690458432492,-1.7083125278087572,1.227050059970152,0.8064824621498334,-1.1522893705243233,1.6022303977668992,0.5994525330576421,0.22534275368906728,0.468662346746484,-0.7491792406291301,1.0
1.7909674358666532,-1.9980507880791858,-0.9734467413994762,-0.32772420134532987,2.602917119748849,0.022833742739072904,0.17270507604266228,1.0383887557346116,-2.7752226087783347,-0.005397376361534414,1.0
0.04994110380276673,1.1423717046187203,1.005142573278018,0.7110919676061538,0.2963432406491764,-0.5020848924353953,-0.14013116489782607,0.3406000190998585,1.7237870360926892,-0.2523800434644497,0.0
1.0845365931693658,-0.6284179694544639,-0.08264778503818894,-0.1597848317419771,2.6104201113140553,-0.2535576125197387,-0.332492513966245,-1.2663405056257042,-2.1395936237477127,-0.8290169196583627,1.0
1.1196458085615812,0.3923513898788222,0.9926885389127922,-0.6280575411270368,1.1753802464921017,0.42216978423139767,-1.7765562532650199,-0.8398808965107355,-1.3258144178134055,0.5458171745620152,1.0
-0.027933319490379693,-1.8356970507299502,0.7513759870759458,-0.3089864982719258,1.7817208701388942,-3.8696561923058153,3.2521731930672906,-0.7008316788660857,1.7378175163508887,0.7471652242595813,0.0
0.8442297228953489,0.6877673451825044,1.7698624206769662,-2.590734772160575,-0.34597228114147094,-1.0672567291984685,-2.454919119516389,-0.7107601035491785,0.19491710307898313,-1.034372827923598,1.0
-1.104669326118167,1.4470999349760743,-0.8924558393569035,0.11241672437706174,2.58028990782583,0.5228925197207526,-1.2250288928345072,-0.22111309528850173,-3.668670390306964,0.3550224544215164,1.0
0.3314922826873786,0.8977349618689633,-0.808419824523387,0.0891062422099742,1.451702834030948,-0.05476618946707219,-0.9937088109708244,-0.42675711688235407,-0.6902180330849388,-0.31526484424154627,1.0
-1.127900027761637,-0.21971468191742935,1.4465039359465777,-3.5677743875325176,1.842054432021277,-4.929633022264518,0.34611324263687737,-1.1102233865095998,-0.45837049012293307,-0.5146415492181471,0.0
1.6913221796355113,-2.2471178957561135,-0.7078526767431832,0.7408867390099958,-1.2291935824576476,0.9639201601100801,1.2838519279710054,0.8795925879863657,1.1888991069782338,-0.7817125206119687,1.0
0.10213275484299689,-1.8021728326703024,1.075433063105038,0.589128947509364,0.2843272904449965,0.3478876516700923,1.6973873785287923,0.07842939901864268,-1.0328846144400545,-1.8991763879154675,0.0
1.6622374755179945,-2.2035847420194656,-0.5274693236138563,1.2271173132522302,-0.7740927820192391,1.4437697532981046,1.3277625715637054,0.5037360462124257,0.5553576565320103,0.3616765854236551,1.0
1.3741564652520601,4.590815986255089,2.4147909986586313,2.413297775318447,2.878365558179423,4.333339954984903,-5.337827269168596,0.3479061163248855,-2.708160107764846,0.07999338055914339,1.0
0.483690794490909,1.6963420611740991,0.10854267602843841,0.8906893351519982,0.2780348043707549,0.44052569127031416,-1.194702342026488,2.11785594962589,1.3786707129064806,0.4626263353811024,0.0
-1.0854723779279953,2.191476897744398,-0.6886667549629432,1.0932527281118714,-0.6653976977639979,-1.0398695771486202,0.2812105430176177,-0.5636490274263427,3.4616388841396515,-0.06265695620244455,1.0
-4.535585595459002,-0.10813322741274704,0.03859194022703303,-2.588463816998557,-0.5551671504596769,-2.9692588262171875,1.8915306438340982,1.7992715750189994,-2.273463223305729,1.4556186900811166,0.0
2.826973557225162,-3.0695601023027694,-0.8705726162617562,-2.0604784033640904,0.6562117316805984,-1.9798886978434485,0.5423493797555814,0.9709007319343095,0.5668628418173545,-0.9842723752925036,0.0
-0.8982159638611025,0.9117172762638394,-0.3848418819471256,2.6079660272685903,0.708352963469046,1.2537445004145251,1.0113536808948036,-0.43858720625729564,-0.019776979879231105,0.46397228292345905,1.0
2.3064800217969075,-3.622193198051318,0.3143834940548472,-2.8411442595288388,1.2337355302792126,-3.361772661318331,1.3176073076328385,0.4145418143797882,0.15513777797493256,-0.002083797420183821,0.0
3.0214597299197985,-2.9582498688519956,0.4995269850954084,1.4635218646335693,-0.714847091083582,1.9797949660646175,1.1863937360573553,-1.0439728399982582,0.8353709285671459,2.288682068797672,1.0
0.38202526466378484,-3.7014515968980892,0.09499375135630458,-2.956216560178823,0.31190107226671726,-3.500481227220029,2.4106279018865977,0.5114155009299537,-0.49769280251152004,-0.36047340420459595,1.0
2.201360219875445,-1.0326653004647943,-1.026640734735731,0.26187421230240493,0.6155660379052342,0.7766316585921486,-0.5034880266189741,0.08733105791540921,-0.034922491004391154,0.24707737780630315,1.0
0.9513508696107995,-5.019585339729461,0.40119221632689,-2.379325031013579,1.0585334019340285,-4.289180791509667,4.05893284830454,-1.296375919263842,0.09955313962794066,0.49963710112595733,0.0
-0.03465452654174128,-0.38650177814516373,-1.3279180716872732,1.1089351057138201,-0.8158466854071535,0.46512240773143554,1.0954268432830203,1.1578148420240095,1.2280871611835178,0.6802653792954804,1.0
-0.8869017737243263,-0.06669218184208618,-1.947883513321163,-0.5198994416291538,0.1841523738880081,-1.1160251122668892,0.6625713425815531,0.1476993252267769,-0.11066629019772234,0.5794425728672615,0.0
0.21362689126188772,2.742986445094086,-0.2552519421022534,0.017187298307120624,1.5990875439669823,1.1302055603196468,-3.2250605753714043,-0.266914712014321,-1.5997013147375998,0.03272449154070758,1.0
1.051754060761316,-0.43595068855781094,0.06368839365161598,-1.4048846772953236,-0.21736902749459075,-0.21342197981226718,-1.1474339990361684,0.1392154086449031,-0.24555002766534262,0.471961333246609,0.0
-3.4390297788954225,-0.20811711315521111,-0.9267131024921815,-2.3032184305935566,1.7402054149990769,-4.070453278526382,2.006629851253259,-0.4228119610855433,-2.1907401769791726,1.2879824738019383,0.0