@RELATION moons

@ATTRIBUTE feature_1 NUMERIC
@ATTRIBUTE feature_2 NUMERIC
@ATTRIBUTE target NUMERIC

@DATA
1.6136099122328615,-0.3285006276629962,1.0
1.631756853607057,-0.367492268540742,1.0
0.820704666003722,0.4707015765615951,0.0
1.9736115075028364,0.2352271472511082,1.0
1.6038781757646237,-0.4184848644441462,1.0
1.1211137675420395,0.05236008836630845,0.0
-0.018248430824040013,-0.06394152406455003,1.0
1.3394092901616677,-0.3923478254166776,1.0
2.0647922333041473,0.2418266575064971,1.0
1.4033815682383233,-0.47611652686312134,1.0
1.6712218636444802,-0.4636502117163949,1.0
-0.2139746513786412,1.007877941350776,0.0
0.04094441196108853,0.9198238640666767,0.0
-0.006762861466974912,0.33342171161430456,1.0
0.3012788545788958,-0.3301952957709026,1.0
0.2522308070292259,0.04610687030642635,1.0
-0.9725275062421941,0.25504215117990847,0.0
0.6200345773778236,0.8717370630133016,0.0
-0.5599598283281826,0.6313362647446201,0.0
0.029068620346012042,0.923697532399965,0.0
0.9173926753297158,0.33062087073920254,0.0
0.933614911025141,0.2045412681367296,0.0
-0.47404446577635384,1.0292408908313437,0.0
1.317878583803758,-0.32588773811139354,1.0
1.7852184986086734,-0.0859594054532728,1.0
1.6585829560603327,-0.22407036400033026,1.0
-0.9582251302501144,0.017764213165741755,0.0
0.9373869449293071,0.7270820902708652,0.0
-1.0811533672107838,0.5352192575033882,0.0
0.12496193333151884,-0.056220179060655476,1.0
0.3904487817960454,-0.12119259441935382,1.0
0.039411095783207686,0.01998869466373937,1.0
2.1883866189504455,0.28513071002743895,1.0
0.9958957180124643,0.3368110990621602,0.0
1.206286120040683,-0.436796492499535,1.0
0.04789536523935024,0.9091527032283325,0.0
0.11613088429054401,1.1400857889717517,0.0
-0.9727984209640659,0.13326138653288047,0.0
0.26077509671893595,0.8727176549620415,0.0
0.8797794808604674,-0.49098247334821443,1.0
2.034351636194251,0.3521194164802246,1.0
0.3944203784275131,0.9547595955702785,0.0
1.3184140483195794,-0.5813409817095028,1.0
1.1560430135024935,-0.4590791412224565,1.0
-0.7129490186195316,0.8392503439127219,0.0
0.6514454386653211,0.664625812715238,0.0
0.2599333257027161,-0.32435737395963954,1.0
-0.8961844775301844,0.21580253633842716,0.0
-0.43274669301021573,1.0068053028462758,0.0
2.035457668882504,0.5003284078677421,1.0
1.011504217457332,0.30433664133829774,0.0
-0.8570112594299761,0.57330191100016,0.0
0.6539275308527681,-0.6436339686999155,1.0
-0.010716295567977058,0.2889579997466739,1.0
-0.861975240406062,-0.030432724802424573,0.0
-1.098099552069912,0.3926177816075028,0.0
-0.7970400523102543,0.5131272188158542,0.0
0.848314174118933,0.5673081362268623,0.0
1.9735284869826692,0.22593546316811366,1.0
0.14530216496645887,0.9559008522622794,0.0
1.7532421531237912,0.09763519147045713,1.0
-0.4905139023459343,1.0533965122565936,0.0
0.6093093035473748,0.9281104463415266,0.0
0.8356758695576086,0.2664609373124083,0.0
-0.9353115390569997,0.2115823912423226,0.0
0.5814788019155956,-0.2526349939399408,1.0
0.006002396031283054,0.4707154993378196,1.0
0.21140692700143343,-0.22080432159159272,1.0
-0.898573172093455,0.035639510198956594,0.0
2.1194570052942563,0.38774948994603936,1.0
0.6193926806314621,0.6623154119769467,0.0
1.0228991478832974,-0.6517881283246438,1.0
1.8659697640325026,-0.3326072480517999,1.0
0.39238115733743484,1.0454577025865812,0.0
0.6848149998048697,-0.28767706690948824,1.0
0.12793506673548075,0.3334285334204432,1.0
-0.4220440284690402,0.6709734177317145,0.0
0.20036134745709955,-0.26250767176343826,1.0
0.015439971704507949,0.09950150323589083,1.0
0.9526873367574868,0.6824627318503402,0.0
0.9615954759833886,0.08583106290606576,0.0
1.8713482440417144,0.12790734638925708,1.0
1.440183132338607,-0.6083006329849555,1.0
1.8108417125908556,-0.12087320295944,1.0
2.106726800244372,0.4973008685136278,1.0
0.8064863588723297,0.16464622362507947,0.0
1.0930571535332279,-0.5761227254017522,1.0
-0.004348193693742425,0.9445187883738241,0.0
0.39490325416799943,-0.280868449129951,1.0
1.389950206775041,-0.44367807579157603,1.0
-0.6528420581390798,0.7826234276549905,0.0
0.42563653984332994,0.8856526273904283,0.0
2.0707836819390177,0.5317428739772487,1.0
1.0481429232643293,-0.12204548268724116,0.0
0.5652301084446891,-0.3538628358629888,1.0
-1.016484648939443,0.23267164465116313,0.0
0.09736007659807697,-0.062010117899213485,1.0
0.8762671225386928,0.8006124756863231,0.0
-0.8515466379738056,0.4093979351639781,0.0
0.8949059969536045,-0.47392217244121904,1.0
-0.7158974697305422,0.5142162493177844,0.0
-0.014332938809624815,0.40538189215834686,1.0
-0.937378320352139,0.29908045662025456,0.0
-0.6890036505296288,1.0077872870646511,0.0
0.07873654002123866,0.19984263493396187,1.0
-0.8891072098890918,0.3775623930169418,0.0
0.06108617500864984,0.9496921124235455,0.0
0.022680321008073878,0.419469430618288,1.0
0.13559679964817356,0.11510986340446934,1.0
1.8962720728709377,0.3825400770916579,1.0
2.0259933277316433,-0.018717309087398708,1.0
1.0609838173418122,0.17265930583090405,0.0
-0.8287153344649772,0.6884945479083218,0.0
-0.9783942663570344,0.37808157814922283,0.0
0.7575860676705971,-0.13527430890741382,1.0
0.5082563557546587,-0.19675683236903874,1.0
-0.13573081361203174,0.8772835184866221,0.0
0.830504576475608,0.22608026229546957,0.0
0.6505141540203447,-0.557457421398972,1.0
0.18820815487950227,-0.11395601445381195,1.0
0.7962124040462183,0.7021737908462886,0.0
1.1681001996163194,-0.48668194740209725,1.0
1.9515573777747683,0.0532180657494441,1.0
-0.9261614111654519,0.42009271589831704,0.0
2.007412229683395,0.5472605421129648,1.0
0.621776233174755,-0.28211329365372817,1.0
1.9943194401842086,0.22697896633984244,1.0
1.5679494038748762,-0.527295607952858,1.0
0.2420930852524914,-0.10612149283284203,1.0
0.23298012161680876,1.1181210551205252,0.0
-0.861008730971546,0.1379019318573079,0.0
0.19445755138566803,1.0233042978995,0.0
0.9444384543643662,-0.3871630774333913,1.0
0.9695638014283026,-0.28545526086004375,1.0
-0.8751767328838407,0.3783146731862755,0.0
0.09150375972248412,-0.011453796372424566,1.0
1.2230736950408896,-0.22329581776074617,1.0
0.13276258568887947,0.35476804051899685,1.0
0.25164036765542164,0.03273275682599611,1.0
-0.878133392725653,0.5097000286201213,0.0
1.0804588782039255,-0.4530806767566929,1.0
0.53340054550677,-0.5233711395689004,1.0
-0.7347120115201083,0.491016285616152,0.0
0.15596159760114658,0.07294012646441361,1.0
-0.07930330300023081,0.9831936329305205,0.0
1.37212147812581,-0.4073357048380365,1.0
-0.7019748086113533,0.5540115297277205,0.0
0.6139327578970657,-0.4948855937716933,1.0
1.829720650206467,0.30641471312125634,1.0
0.7981393583581933,0.47634369151538714,0.0
0.120564557097893,0.42263579661478756,1.0
-0.3548363247904459,0.9854269927239129,0.0
0.8925694247448737,0.3643433647474972,0.0
0.6160771668449991,0.7605679902406487,0.0
0.7874375841777801,-0.24697406096277297,1.0
0.004020909372070287,0.8826055144118674,0.0
-0.6239620564999495,0.7883810051194307,0.0
1.08283588606016,-0.5229114314401019,1.0
0.9875107462681095,-0.6152488898912031,1.0
1.1486238669388467,-0.590988518007028,1.0
-0.9091723068663369,0.1863650377560793,0.0
0.9352193073561094,0.199080735062713,0.0
0.30314192667721446,1.0931454910134126,0.0
1.9853924479516474,0.21203134842388885,1.0
-0.5548704020487925,1.0379188535200379,0.0
1.9304768073109255,0.1979647186618043,1.0
-0.09014096553017327,1.1662265766054114,0.0
1.1303015659513065,0.1744500983305097,0.0
0.8290253454391269,-0.5774114017341567,1.0
-0.3912800525731901,0.8872138932701323,0.0
1.6661241819193875,-0.052016697301915826,1.0
0.13087020990812848,0.044199587353308395,1.0
0.07624901092090085,0.25259193224435283,1.0
0.692300161663116,0.7882927918379324,0.0
1.7560591282160194,-0.2039729997707722,1.0
-0.7229087935880748,0.6428457391470961,0.0
0.8081572851263572,0.7066996948524262,0.0
0.22118375184825667,1.0353546495109134,0.0
-0.005981682021311059,0.2720865142301908,1.0
-0.7172072692403559,0.5555707876471732,0.0
0.5458013640853169,-0.6353126906604531,1.0
0.19334485199025153,-0.21993258964940204,1.0
-0.5118142725868235,0.9567693432128068,0.0
0.0661812674876652,0.5259757928063341,1.0
-0.1501472998055425,0.9410954314058892,0.0
0.3495980408095334,0.8669061790748623,0.0
-0.9064107947963174,0.42867531318088314,0.0
-0.10433726814432859,0.7325373255554151,0.0
0.7885010213116527,0.6990063974088018,0.0
0.6201732202098549,0.6838016710853473,0.0
0.29948557093401573,1.0344960417493834,0.0
1.5733420349561664,-0.31155113020550695,1.0
0.44720667575237644,0.9258854057786309,0.0
-0.9282683013742341,0.2122151567234989,0.0
-0.4562878731854604,0.8441667162755007,0.0
0.4756879821239051,0.7689573990772794,0.0
-0.5849693205569737,1.036862194716326,0.0
1.9368663693561405,0.45880747059405624,1.0
0.493286063621508,0.986173438865842,0.0
0.8236277011868327,0.3366590986789003,0.0
-0.8412248615779537,0.5145937013526843,0.0
1.9136969613884753,0.008953265696475282,1.0
-1.095508601906621,0.024139014733799757,0.0
1.9722113070581373,0.09382721565601015,1.0
1.7643801054383494,-0.06052823042255033,1.0
0.5475649759191389,0.8451737823801826,0.0
0.9218496766847367,-0.5176931311940426,1.0
1.457132995431764,-0.367515455629586,1.0
0.6499663744933416,-0.4877179612136945,1.0
0.1001247160395058,0.008911501037760533,1.0
0.3737530702895222,1.0223317046507172,0.0
0.8582942848858827,0.3499165334693876,0.0
0.9823868678144401,-0.32814199995381244,1.0
0.3493433780607914,0.9814460624476458,0.0
0.2493939267338968,-0.3919675157484308,1.0
-0.628615796013346,0.6256402160820375,0.0
-0.25432181514454427,0.9410814655933555,0.0
-0.18268204799608612,0.4586636130394015,1.0
0.971945758404134,-0.13571163957779642,0.0
1.9874002499612242,0.0893122162682812,1.0
0.643229962284536,-0.5043296164241152,1.0
-1.1259874650897022,0.13589588872706687,0.0
1.652456441906428,-0.3768266535169343,1.0
0.5108753919967134,-0.4373385926829627,1.0
-0.7607447571508539,0.5190656189210386,0.0
0.3125144627772079,0.8852070046285123,0.0
0.602835932597126,-0.31759137628800055,1.0
0.6748489589929059,0.6526009741902844,0.0
0.27053422896765583,1.0068149278678602,0.0
0.6627554523297154,0.8213488292609351,0.0
0.9414648016848858,0.49137228264329624,0.0
1.6006301691575846,-0.38500447525839904,1.0
-0.20218457097929937,0.40725491255685187,1.0
-0.41788232831074557,0.8086975342740091,0.0
0.565849841740671,-0.3611615811475032,1.0
0.8558335375254669,0.42294183473184216,0.0
1.8956634438955235,0.17097921680602518,1.0
1.8334738993346957,-0.07126025921250687,1.0
1.033775271244892,0.3228579964623783,0.0
1.2058710051299881,-0.5277703307939703,1.0
1.1205977929703095,0.2656005641253721,0.0
1.6730270068416373,0.013126400481331665,1.0
0.6739172398653006,-0.4655148901343751,1.0
2.04368123323379,0.45224871363691665,1.0
1.5335576609919988,-0.39637435413116207,1.0
0.6415338802143441,-0.3181795285110772,1.0
1.9893885207056128,-0.057078908956148346,1.0
-0.7276711058642413,0.46637688774591546,0.0
-0.20000301543015062,0.8115361023462044,0.0
0.6281299243923711,0.8040048031664757,0.0
0.25141686951560616,0.9461586283007521,0.0
0.4332373772065219,-0.10986513741020765,1.0
-1.1512819208402365,-0.023772956755169432,0.0
1.601782072764105,-0.34479033852364116,1.0
0.9585689431919863,0.24711657451894675,0.0
1.0473384211616776,0.49891790782945306,0.0
-0.34859486644340926,0.9838758797058773,0.0
-0.3501247817701587,0.9682125232371339,0.0
2.0079659998998394,0.0027325178768345393,1.0
0.08068182564802547,0.9874000989220135,0.0
-0.0857460060353823,0.05551835402374193,1.0
0.9906090360383996,0.0891726719274091,0.0
1.6882326244696073,-0.07090719626356806,1.0
0.10220410469357563,-0.0018120054671151645,1.0
-0.056759693682631146,0.8634525298488687,0.0
0.12976672949299256,-0.16483153929183955,1.0
-0.9289856160534976,0.4106398100088285,0.0
1.3010987626455208,-0.4664832774398028,1.0
0.6806836027995768,-0.4731752902477225,1.0
1.8685606997357043,0.024557265426262964,1.0
0.39814878740643433,-0.2552074870512269,1.0
-0.07399038179999518,0.20678922872725872,1.0
-0.6242522025070403,0.7463161666526116,0.0
1.3451641298364587,-0.4981694006374124,1.0
-1.0078014942212186,0.5630323850950418,0.0
1.0335158608994865,-0.6855395773933477,1.0
1.8154534783765939,-0.154667112073481,1.0
-0.4329490570510383,0.8658402581986012,0.0
-0.6337629330375658,0.7101726501599914,0.0
1.3096247016300802,-0.3516406118513793,1.0
1.7198166718367212,-0.23951655861282475,1.0
1.5640742391541438,-0.4885134426323803,1.0
0.21181110857884444,-0.35756182235888406,1.0
1.032319836758035,0.2352566039328721,0.0
0.8685252990615674,0.7703605262670783,0.0
1.6300698660631838,-0.3716391550794098,1.0
-0.9189761275681412,0.0795045267626495,0.0
-0.5356118192725164,1.0051605645343709,0.0
-0.6930468822869256,0.6986060525151288,0.0
-0.08842187011629928,0.23174646818367195,1.0
0.6281057134075338,0.7134860712723998,0.0
0.3056610951054136,0.8122117860503689,0.0
0.14870701199670427,-0.12848403521990145,1.0
0.13755316948602864,0.03174029627206694,1.0
-0.18493736294995153,1.1420298321044702,0.0
1.3610352760879458,-0.3967971617260375,1.0
0.8728466019438739,0.13430498797310744,0.0
-0.08538306531751215,0.8828021396988259,0.0
0.764049510773537,-0.35131128274696777,1.0
-0.08422197191941397,1.0504265722117463,0.0