@RELATION no_structure

@ATTRIBUTE feature_1 NUMERIC
@ATTRIBUTE feature_2 NUMERIC

@DATA
0.03960330324202854,0.18058658508394443
0.4758450359742443,0.8741175588572857
0.06615763408932407,0.790862710830432
0.05552532934002263,0.5345164075420201
0.4364138273346404,0.7120403119178602
0.21088702791477598,0.13031799122018262
0.21689834542674946,0.5845294747014824
0.7122417288542554,0.23586251030239935
0.6127893338588326,0.2902577516324746
0.5921674622160025,0.6445864907648454
0.12682373131467373,0.6850820037037394
0.830270683317223,0.9626552159313397
0.7196626740109004,0.08855263193461926
0.7902798678261286,0.10806533233209425
0.38579798828949785,0.1924381683129418
0.7909390971543792,0.2938563327217518
0.5722787712784414,0.0871509065995294
0.14082659956931953,0.7606282887229746
0.07691886281753268,0.6374505787585102
0.06910819856117134,0.792197140908729
0.5300457314680351,0.8941884437988428
0.8899529248359982,0.22157006285807046
0.9876398936535974,0.6823653340481816
0.8622566190437069,0.2170730974701779
0.9021238367830017,0.2941461712810537
0.6729999451963993,0.07698306017113443
0.6601693270279262,0.06352062898589872
0.29809842416766874,0.5704865046447949
0.5876924362518869,0.7966009786195205
0.19668938170305517,0.08872871955637152
0.9176312719489632,0.35221375030812907
0.744446810290645,0.7739840454470629
0.5289761967517003,0.977284630077098
0.40335728100141643,0.6838585504087586
0.7039909484353466,0.06405823744995731
0.22779517910212754,0.533241820176678
0.6257884149059735,0.9131501776480138
0.5641522229958469,0.9365640106190387
0.028622886388448898,0.9820491836220236
0.14816376473342074,0.7437853351684306
0.32557397382947584,0.26034990484009357
0.9674128286689353,0.8144056703607003
0.8703288327542367,0.6060840513971936
0.0609168633253655,0.692642963499791
0.0042038177757086626,0.5290650822340305
0.714240550142953,0.883259066529684
0.48258850814869625,0.7786511478009979
0.397306240381063,0.7810921302208855
0.3443659167029296,0.3937575820976824
0.336757708302571,0.1701432372474001
0.1322700460417816,0.9620106210126509
0.2021022148448568,0.811168589547063
0.5590032500577897,0.5252141060380274
0.3748378599437826,0.0068179313955329945
0.6489291857521685,0.8721966226127268
0.6529781521547124,0.5933986669205815
0.969697351619047,0.122166388340889
0.2013717302985054,0.25660590959024265
0.11510319578259343,0.5142755210177347
0.424930547090411,0.09836801990484623
0.06201357233982119,0.7156114512006971
0.30229479522693103,0.9514104575428616
0.7287654256168603,0.11935753990792186
0.16609648550393685,0.464891377507624
0.8169871750522465,0.9599476068824546
0.6828121587686163,0.1385864610181443
0.5974965904562499,0.1726008820952989
0.5786424049049429,0.41247208771822264
0.672553291289014,0.7348367083453127
0.6595180940429323,0.9458450288822301
0.6903295710689443,0.954506085597341
0.5901796658079675,0.5986584479786119
0.8919729628379407,0.8115414133527844
0.3311740724442186,0.994887703720892
0.442522194364365,0.3262382194976847
0.3793686597589496,0.084493247436082
0.2022508480244921,0.22178772887549647
0.7888789056780948,0.44422363716505053
0.6602476212669779,0.16200360926417323
0.2857647257570407,0.4694610006890829
0.7875102999056125,0.45977783223542157
0.8976217663222786,0.9531895633013302
0.7282867877469023,0.9735304969595622
0.9009531103235412,0.19801752636735648
0.7372545031637923,0.297378497975604
0.4692083972696014,0.7595740850856769
0.3648395258057392,0.28676802808782254
0.6642207809309926,0.8641483526777926
0.877268899140642,0.5951885602320514
0.6740234695347099,0.46643087733954547
0.958175433639975,0.4908492317236982
0.5180996195233571,0.9103501520264109
0.07560874835235387,0.8439535632462907
0.09598999828535293,0.3244045037793939
0.7816967294432772,0.6559547444944545
0.7607098038724759,0.9574509746071647
0.6514424086926502,0.7250622116861286
0.3007686358519588,0.4847633709512448
0.415525672976071,0.9890828373582808
0.8924341965059226,0.7616704080397068
0.3741915384287666,0.21926787773144274
0.47891603555415885,0.5952171293154898
0.5476398773276985,0.20779668880926327
0.9821712696753471,0.37831997190993216
0.196336679534028,0.5130545503052839
0.011122607289853814,0.9952204510133126
0.6862438586360426,0.9791026552754211
0.21629431202813554,0.08902076609898324
0.7295997564185328,0.6806177707379393
0.6711674950533216,0.06729872066698195
0.3368507022789359,0.8959845237787263
0.03425801257983385,0.675116086038183
0.9309519584772873,0.5663468673259736
0.7937246371079631,0.3233143301633473
0.36914758704370465,0.19945226945496475
0.731118300282086,0.5383946202533914
0.02276058075636389,0.9192436718338256
0.8727864034260131,0.8769508415499075
0.7801706031157403,0.8579615522812887
0.9618592392253517,0.6210982294494023
0.4023272679436888,0.06689272552333625
0.6965721584267074,0.3023925091550502
0.5390671009669906,0.6921813887646129
0.7869132256937886,0.6186519767783212
0.15901347296570634,0.23732285741720316
0.4647329859798299,0.9388886876127724
0.9948050190004021,0.3943269720620616
0.08114282072265178,0.6957018896723652
0.1312703214274773,0.5358918202006951
0.5000685147400292,0.6785731944617945
0.584554931661842,0.5524461133203182
0.6510790905985385,0.772607359193428
0.770439475780852,0.6228985688821141
0.7024261492034489,0.582031044212739
0.9130096268585501,0.8772629209792725
6.463220602681563e-05,0.1005250589881942
0.5981859897025814,0.7289980972246828
0.3561191864904687,0.5560992397021702
0.07085433478050862,0.12383843615143453
0.6251599999936105,0.9311727576164762
0.0935777866274724,0.1116377258433574
0.007949441373936939,0.5465867318721337
0.80710099207431,0.7657285364850462
0.9565283779058854,0.9317108742035954
0.9923725222384431,0.3910291832624033
0.191690084266269,0.8094525289941753
0.4615411868068532,0.7240964324999677
0.2506701983845936,0.15671969566672161
0.5588155557975307,0.7061744112660554
0.7349758926183639,0.2757939215429761
0.26300662007733067,0.363816655327572
0.03438490895583224,0.11765577807947825
0.24093382587045442,0.39687318872840627
0.7769003293547738,0.7161385908304366
0.5505111872275888,0.4506208825094219
0.4354294266146479,0.04177766693731888
0.5961044933922176,0.15364494908584214
0.3120046265869333,0.771357711832831
0.01145176206511922,0.330607845707528
0.24552939993039113,0.6148848475489848
0.5724063069072824,0.5766610858360782
0.5844990299174776,0.39883571746874047
0.056578704851754646,0.08800728674815561
0.7347083761215193,0.19795946359418604
0.2716755064434445,0.5685726067568075
0.11995419859153267,0.048645425820739496
0.4185964298503716,0.6163554656060387
0.9328788163302306,0.3194627591784829
0.16260122064242788,0.653576168592845
0.9061326004905872,0.15004079821025063
0.2449046396335991,0.8571843863944366
0.41772807299743264,0.8165724811561722
0.7464930353889949,0.26069636873634006
0.735607105805414,0.3589632352140588
0.438407225560013,0.2704303740867652
0.1488502526940343,0.6101830225936615
0.6245568133857938,0.29660318789136175
0.6762888246536922,0.6708616609294709
0.28361660111575715,0.10663902994915941
0.29076785911016867,0.08026262446271337
0.6081822887343867,0.20871190644230253
0.7467932996125933,0.8756470226084442
0.8539998095168099,0.2394111616139708
0.27007625633431553,0.03367500683499103
0.47550132703015435,0.34141052660650684
0.4449143896940485,0.12192735364472229
0.8808423832436242,0.6298773200396587
0.26031031856133713,0.26184395065222
0.7054607823945988,0.3404799087215652
0.6605097540060983,0.5952398399581181
0.6294231160254536,0.278299482538792
0.49907339761266345,0.005843618825643215
0.7857774051800899,0.647052273814918
0.7255349620467658,0.7571787280842168
0.7573788191986223,0.3005885996839669
0.06479123815433585,0.69374193036592
0.8065832731587624,0.9325862541792909
0.6927925587849222,0.18933851112756228
0.0543071899739378,0.5126976941809218
0.9265232280552569,0.0679289311875878
0.4081568905931031,0.22620495916533478
0.869986836717068,0.8231410515988378
0.9678324706571736,0.2558713923105015
0.18177422770401885,0.6048260858653586
0.4114290569191189,0.23881374968674052
0.11204541113681721,0.3102942514252397
0.2878878918319927,0.05235016197402165
0.8505785396715961,0.7924597703050091
0.7067794966918494,0.9109619565502287
0.006992088678015929,0.8454812856312174
0.06101377705884026,0.8223952678168374
0.3636171168799842,0.9590000033235709
0.744216361783305,0.695945322622638
0.9741854056054727,0.5261087809891493
0.6911601014942215,0.22641962207122668
0.9331082539051055,0.44387818170161253
0.5681554461671061,0.2376932493036198
0.2777402146996465,0.5571706584158252
0.03561510358849573,0.6773375257367241
0.5212663079189367,0.16955451000875443
0.7015089087851353,0.2961775923829243
0.9543543311559548,0.6106120507075535
0.06756735631169153,0.15594905981473783
0.5116857763471001,0.1509332225227873
0.4759618413300176,0.15682502387036457
0.38058776723577825,0.5052610644311342
0.03231867955210288,0.971132494239233
0.19677207022885312,0.2957940872164516
0.8448622008767982,0.21551283576134206
0.7486319310417584,0.1568451367345246
0.012995664766597526,0.736028636595041
0.5014944551200392,0.5649696252133188
0.2641248499777811,0.7055016006372152
0.9232938405298393,0.3083792814127684
0.3157852416590837,0.07361052117958755
0.7353533354651985,0.6447877190503003
0.9832792097891198,0.45272432333658563
0.5782355016978264,0.15153123247310574
0.42206638977672606,0.9054913177449498
0.6736674474111152,0.7343868797187965
0.9147533325568215,0.0439141349306178
0.697282875486253,0.6274897611567528
0.595279607644094,0.7884773664232484
0.2827053252896141,0.17329076339123317
0.2841005541535295,0.8043498170121016
0.33664091531141893,0.9728677736527598
0.2299778057866193,0.07481014096763916
0.3838953066595815,0.2581103950303807
0.9649490943456888,0.39175859503699695
0.5449214080100825,0.37750745264372965
0.7105907055567628,0.4834246173284732
0.048337460033764934,0.9476700110890185
0.9874198731474141,0.3991205179059757
0.5183792549021806,0.44708968255944115
0.38146914803673115,0.8727969440729528
0.3815795248472672,0.365275184439112
0.11984345143686614,0.5056252307468329
0.03582179117173678,0.2785553602372852
0.783918275790112,0.7207856383123853
0.16303849297927286,0.977652701933652
0.18291665226449416,0.01067687557635466
0.12122259318371009,0.6207616802564451
0.9579813417482552,0.6419986974851808
0.07208717472775161,0.38710641406259017
0.5179818110058234,0.8914623869715677
0.5977241029449604,0.399672393322988
0.4643109819923118,0.12179978252654056
0.09685340580175761,0.9114004175278384
0.6765504473913415,0.7150112839568185
0.5118371199432719,0.5309365957791343
0.8131999331451208,0.8255841567736185
0.10402042783865861,0.6227401215207918
0.8505114778439177,0.9597203620100594
0.7225523159258871,0.019504154708112398
0.9972245587878004,0.37708607561767193
0.4017524355513348,0.8267697144336758
0.28836334134319097,0.3132076389090135
0.5451932986700172,0.46518389048244935
0.026507917728703312,0.09763475921963449
0.18253177885999272,0.16221156732136333
0.6422567561646008,0.06637680608694274
0.9614065380675163,0.8396824824831425
0.9539485956254539,0.11828155044869526
0.9444022484945026,0.04077313187738307
0.2660488515256093,0.8326841379831126
0.8270365389268681,0.37091054193836437
0.41296857124523756,0.7609545270102361
0.8008991890897234,0.25862083805259006
0.47337945676748483,0.540772742069766
0.08321094356364167,0.2070507261262291
0.5377795925758807,0.04460506198830072
0.47028989708426905,0.25912686097035886
0.342557417562242,0.9161962798608962
0.33934421110019886,0.7124404198071008
0.11910915783702025,0.8281078719614199
0.6695976510970391,0.4890245714760465
0.2633433583194271,0.9413781422374062
0.13375335757336826,0.9668841541751806
0.09503812058477346,0.0033021924415833626
0.011000971636961676,0.29440158795239546